Mg1 O1                                  
   1.00000000000000     
     0.0000000000000000    2.1233749999999998    2.1233749999999998
     2.1233749999999998    0.0000000000000000    2.1233749999999998
     2.1233749999999998    2.1233749999999998    0.0000000000000000
   Mg   O 
     1     1
Direct
  0.0000000000000000  0.0000000000000000  0.0000000000000000
  0.5000000000000000  0.5000000000000000  0.5000000000000000
 
  0.00000000E+00  0.00000000E+00  0.00000000E+00
  0.00000000E+00  0.00000000E+00  0.00000000E+00
