Generated by vise. Mode: primitive_uniform, kpt density: 3.0, factor: 1. 
0
Gamma
8 8 8
