Generated by ASE. length = ( [16.389309360894696, 18.92474434268921, 15.288623620747362] ), angle=( 90.0, 90.0, 90.0 ), natom= 540
1.0
16.389309 -0.000000 0.000000
0.000000 18.924744 0.000000
0.000000 0.000000 15.288624
O
216
direct
0.111906 -0.007288 0.585481 O
0.445239 -0.007288 0.585481 O
0.278572 0.242712 0.585481 O
0.278572 0.076045 0.918814 O
0.111906 0.492712 0.585481 O
0.111906 0.326045 0.918814 O
0.111906 0.159379 1.252147 O
0.778572 -0.007288 0.585481 O
0.611906 0.242712 0.585481 O
0.611906 0.076045 0.918814 O
0.445239 0.492712 0.585481 O
0.445239 0.326045 0.918814 O
0.445239 0.159379 1.252147 O
0.278572 0.742712 0.585481 O
0.278572 0.576045 0.918814 O
0.278572 0.409379 1.252147 O
0.111906 0.826045 0.918814 O
0.111906 0.659379 1.252147 O
0.945239 0.242712 0.585481 O
0.945239 0.076045 0.918814 O
0.778572 0.492712 0.585481 O
0.778572 0.326045 0.918814 O
0.778572 0.159379 1.252147 O
0.611906 0.742712 0.585481 O
0.611906 0.576045 0.918814 O
0.611906 0.409379 1.252147 O
0.445239 0.826045 0.918814 O
0.445239 0.659379 1.252147 O
0.278572 0.909379 1.252147 O
0.945239 0.742712 0.585481 O
0.945239 0.576045 0.918814 O
0.945239 0.409379 1.252147 O
0.778572 0.826045 0.918814 O
0.778572 0.659379 1.252147 O
0.611906 0.909379 1.252147 O
0.945239 0.909379 1.252147 O
0.048665 -0.087573 0.414519 O
0.381998 -0.087573 0.414519 O
0.215332 0.162427 0.414519 O
0.215332 -0.004240 0.747853 O
0.048665 0.412427 0.414519 O
0.048665 0.245760 0.747853 O
0.048665 0.079094 1.081186 O
0.715332 -0.087573 0.414519 O
0.548665 0.162427 0.414519 O
0.548665 -0.004240 0.747853 O
0.381998 0.412427 0.414519 O
0.381998 0.245760 0.747853 O
0.381998 0.079094 1.081186 O
0.215332 0.662427 0.414519 O
0.215332 0.495760 0.747853 O
0.215332 0.329094 1.081186 O
0.048665 0.745760 0.747853 O
0.048665 0.579094 1.081186 O
0.881998 0.162427 0.414519 O
0.881998 -0.004240 0.747853 O
0.715332 0.412427 0.414519 O
0.715332 0.245760 0.747853 O
0.715332 0.079094 1.081186 O
0.548665 0.662427 0.414519 O
0.548665 0.495760 0.747853 O
0.548665 0.329094 1.081186 O
0.381998 0.745760 0.747853 O
0.381998 0.579094 1.081186 O
0.215332 0.829094 1.081186 O
0.881998 0.662427 0.414519 O
0.881998 0.495760 0.747853 O
0.881998 0.329094 1.081186 O
0.715332 0.745760 0.747853 O
0.715332 0.579094 1.081186 O
0.548665 0.829094 1.081186 O
0.881998 0.829094 1.081186 O
0.063241 0.080285 0.414519 O
0.396574 0.080285 0.414519 O
0.229907 0.330285 0.414519 O
0.229907 0.163619 0.747853 O
0.063241 0.580285 0.414519 O
0.063241 0.413619 0.747853 O
0.063241 0.246952 1.081186 O
0.729907 0.080285 0.414519 O
0.563241 0.330285 0.414519 O
0.563241 0.163619 0.747853 O
0.396574 0.580285 0.414519 O
0.396574 0.413619 0.747853 O
0.396574 0.246952 1.081186 O
0.229907 0.830285 0.414519 O
0.229907 0.663619 0.747853 O
0.229907 0.496952 1.081186 O
0.063241 0.913619 0.747853 O
0.063241 0.746952 1.081186 O
0.896574 0.330285 0.414519 O
0.896574 0.163619 0.747853 O
0.729907 0.580285 0.414519 O
0.729907 0.413619 0.747853 O
0.729907 0.246952 1.081186 O
0.563241 0.830285 0.414519 O
0.563241 0.663619 0.747853 O
0.563241 0.496952 1.081186 O
0.396574 0.913619 0.747853 O
0.396574 0.746952 1.081186 O
0.229907 0.996952 1.081186 O
0.896574 0.830285 0.414519 O
0.896574 0.663619 0.747853 O
0.896574 0.496952 1.081186 O
0.729907 0.913619 0.747853 O
0.729907 0.746952 1.081186 O
0.563241 0.996952 1.081186 O
0.896574 0.996952 1.081186 O
-0.063241 -0.080285 0.585481 O
0.270093 -0.080285 0.585481 O
0.103426 0.169715 0.585481 O
0.103426 0.003048 0.918814 O
-0.063241 0.419715 0.585481 O
-0.063241 0.253048 0.918814 O
-0.063241 0.086381 1.252147 O
0.603426 -0.080285 0.585481 O
0.436759 0.169715 0.585481 O
0.436759 0.003048 0.918814 O
0.270093 0.419715 0.585481 O
0.270093 0.253048 0.918814 O
0.270093 0.086381 1.252147 O
0.103426 0.669715 0.585481 O
0.103426 0.503048 0.918814 O
0.103426 0.336381 1.252147 O
-0.063241 0.753048 0.918814 O
-0.063241 0.586381 1.252147 O
0.770093 0.169715 0.585481 O
0.770093 0.003048 0.918814 O
0.603426 0.419715 0.585481 O
0.603426 0.253048 0.918814 O
0.603426 0.086381 1.252147 O
0.436759 0.669715 0.585481 O
0.436759 0.503048 0.918814 O
0.436759 0.336381 1.252147 O
0.270093 0.753048 0.918814 O
0.270093 0.586381 1.252147 O
0.103426 0.836381 1.252147 O
0.770093 0.669715 0.585481 O
0.770093 0.503048 0.918814 O
0.770093 0.336381 1.252147 O
0.603426 0.753048 0.918814 O
0.603426 0.586381 1.252147 O
0.436759 0.836381 1.252147 O
0.770093 0.836381 1.252147 O
-0.048665 0.087573 0.585481 O
0.284668 0.087573 0.585481 O
0.118002 0.337573 0.585481 O
0.118002 0.170906 0.918814 O
-0.048665 0.587573 0.585481 O
-0.048665 0.420906 0.918814 O
-0.048665 0.254240 1.252147 O
0.618002 0.087573 0.585481 O
0.451335 0.337573 0.585481 O
0.451335 0.170906 0.918814 O
0.284668 0.587573 0.585481 O
0.284668 0.420906 0.918814 O
0.284668 0.254240 1.252147 O
0.118002 0.837573 0.585481 O
0.118002 0.670906 0.918814 O
0.118002 0.504240 1.252147 O
-0.048665 0.920906 0.918814 O
-0.048665 0.754240 1.252147 O
0.784668 0.337573 0.585481 O
0.784668 0.170906 0.918814 O
0.618002 0.587573 0.585481 O
0.618002 0.420906 0.918814 O
0.618002 0.254240 1.252147 O
0.451335 0.837573 0.585481 O
0.451335 0.670906 0.918814 O
0.451335 0.504240 1.252147 O
0.284668 0.920906 0.918814 O
0.284668 0.754240 1.252147 O
0.118002 1.004240 1.252147 O
0.784668 0.837573 0.585481 O
0.784668 0.670906 0.918814 O
0.784668 0.504240 1.252147 O
0.618002 0.920906 0.918814 O
0.618002 0.754240 1.252147 O
0.451335 1.004240 1.252147 O
0.784668 1.004240 1.252147 O
-0.111906 0.007288 0.414519 O
0.221428 0.007288 0.414519 O
0.054761 0.257288 0.414519 O
0.054761 0.090621 0.747853 O
-0.111906 0.507288 0.414519 O
-0.111906 0.340621 0.747853 O
-0.111906 0.173955 1.081186 O
0.554761 0.007288 0.414519 O
0.388094 0.257288 0.414519 O
0.388094 0.090621 0.747853 O
0.221428 0.507288 0.414519 O
0.221428 0.340621 0.747853 O
0.221428 0.173955 1.081186 O
0.054761 0.757288 0.414519 O
0.054761 0.590621 0.747853 O
0.054761 0.423955 1.081186 O
-0.111906 0.840621 0.747853 O
-0.111906 0.673955 1.081186 O
0.721428 0.257288 0.414519 O
0.721428 0.090621 0.747853 O
0.554761 0.507288 0.414519 O
0.554761 0.340621 0.747853 O
0.554761 0.173955 1.081186 O
0.388094 0.757288 0.414519 O
0.388094 0.590621 0.747853 O
0.388094 0.423955 1.081186 O
0.221428 0.840621 0.747853 O
0.221428 0.673955 1.081186 O
0.054761 0.923955 1.081186 O
0.721428 0.757288 0.414519 O
0.721428 0.590621 0.747853 O
0.721428 0.423955 1.081186 O
0.554761 0.840621 0.747853 O
0.554761 0.673955 1.081186 O
0.388094 0.923955 1.081186 O
0.721428 0.923955 1.081186 O
