trans_mat: 2 2 2, multi: 32, isotropy: 0.0
1.0
10.895020 0.000000 0.000000
0.000000 10.895020 0.000000
0.000000 0.000000 10.895020
Zn S
32 32
direct
0.000000 0.000000 0.000000 Zn
0.000000 0.000000 0.500000 Zn
0.000000 0.500000 0.000000 Zn
0.000000 0.500000 0.500000 Zn
0.500000 0.000000 0.000000 Zn
0.500000 0.000000 0.500000 Zn
0.500000 0.500000 0.000000 Zn
0.500000 0.500000 0.500000 Zn
0.000000 0.250000 0.250000 Zn
0.000000 0.250000 0.750000 Zn
0.000000 0.750000 0.250000 Zn
0.000000 0.750000 0.750000 Zn
0.500000 0.250000 0.250000 Zn
0.500000 0.250000 0.750000 Zn
0.500000 0.750000 0.250000 Zn
0.500000 0.750000 0.750000 Zn
0.250000 0.000000 0.250000 Zn
0.250000 0.000000 0.750000 Zn
0.250000 0.500000 0.250000 Zn
0.250000 0.500000 0.750000 Zn
0.750000 0.000000 0.250000 Zn
0.750000 0.000000 0.750000 Zn
0.750000 0.500000 0.250000 Zn
0.750000 0.500000 0.750000 Zn
0.250000 0.250000 0.000000 Zn
0.250000 0.250000 0.500000 Zn
0.250000 0.750000 0.000000 Zn
0.250000 0.750000 0.500000 Zn
0.750000 0.250000 0.000000 Zn
0.750000 0.250000 0.500000 Zn
0.750000 0.750000 0.000000 Zn
0.750000 0.750000 0.500000 Zn
0.125000 0.125000 0.125000 S
0.125000 0.125000 0.625000 S
0.125000 0.625000 0.125000 S
0.125000 0.625000 0.625000 S
0.625000 0.125000 0.125000 S
0.625000 0.125000 0.625000 S
0.625000 0.625000 0.125000 S
0.625000 0.625000 0.625000 S
0.125000 0.375000 0.375000 S
0.125000 0.375000 0.875000 S
0.125000 0.875000 0.375000 S
0.125000 0.875000 0.875000 S
0.625000 0.375000 0.375000 S
0.625000 0.375000 0.875000 S
0.625000 0.875000 0.375000 S
0.625000 0.875000 0.875000 S
0.375000 0.125000 0.375000 S
0.375000 0.125000 0.875000 S
0.375000 0.625000 0.375000 S
0.375000 0.625000 0.875000 S
0.875000 0.125000 0.375000 S
0.875000 0.125000 0.875000 S
0.875000 0.625000 0.375000 S
0.875000 0.625000 0.875000 S
0.375000 0.375000 0.125000 S
0.375000 0.375000 0.625000 S
0.375000 0.875000 0.125000 S
0.375000 0.875000 0.625000 S
0.875000 0.375000 0.125000 S
0.875000 0.375000 0.625000 S
0.875000 0.875000 0.125000 S
0.875000 0.875000 0.625000 S