Generated by ASE. length = ( [16.389309360894696, 18.92474434268921, 15.288623620747362] ), angle=( 90.0, 90.0, 90.0 ), natom= 540
1.0
16.389309 -0.000000 0.000000
0.000000 18.924744 0.000000
0.000000 0.000000 15.288624
Sn O Li
36 216 288
direct
0.000000 0.000000 0.000000 Sn
0.333333 -0.000000 0.000000 Sn
0.166667 0.250000 0.000000 Sn
0.166667 0.083333 0.333333 Sn
0.000000 0.500000 0.000000 Sn
0.000000 0.333333 0.333333 Sn
0.000000 0.166667 0.666667 Sn
0.666667 -0.000000 0.000000 Sn
0.500000 0.250000 0.000000 Sn
0.500000 0.083333 0.333333 Sn
0.333333 0.500000 0.000000 Sn
0.333333 0.333333 0.333333 Sn
0.333333 0.166667 0.666667 Sn
0.166667 0.750000 0.000000 Sn
0.166667 0.583333 0.333333 Sn
0.166667 0.416667 0.666667 Sn
-0.000000 0.833333 0.333333 Sn
0.000000 0.666667 0.666667 Sn
0.833333 0.250000 0.000000 Sn
0.833333 0.083333 0.333333 Sn
0.666667 0.500000 0.000000 Sn
0.666667 0.333333 0.333333 Sn
0.666667 0.166667 0.666667 Sn
0.500000 0.750000 0.000000 Sn
0.500000 0.583333 0.333333 Sn
0.500000 0.416667 0.666667 Sn
0.333333 0.833333 0.333333 Sn
0.333333 0.666667 0.666667 Sn
0.166667 0.916667 0.666667 Sn
0.833333 0.750000 0.000000 Sn
0.833333 0.583333 0.333333 Sn
0.833333 0.416667 0.666667 Sn
0.666667 0.833333 0.333333 Sn
0.666667 0.666667 0.666667 Sn
0.500000 0.916667 0.666667 Sn
0.833333 0.916667 0.666667 Sn
0.111906 -0.007288 0.585481 O
0.445239 -0.007288 0.585481 O
0.278572 0.242712 0.585481 O
0.278572 0.076045 0.918814 O
0.111906 0.492712 0.585481 O
0.111906 0.326045 0.918814 O
0.111906 0.159379 1.252147 O
0.778572 -0.007288 0.585481 O
0.611906 0.242712 0.585481 O
0.611906 0.076045 0.918814 O
0.445239 0.492712 0.585481 O
0.445239 0.326045 0.918814 O
0.445239 0.159379 1.252147 O
0.278572 0.742712 0.585481 O
0.278572 0.576045 0.918814 O
0.278572 0.409379 1.252147 O
0.111906 0.826045 0.918814 O
0.111906 0.659379 1.252147 O
0.945239 0.242712 0.585481 O
0.945239 0.076045 0.918814 O
0.778572 0.492712 0.585481 O
0.778572 0.326045 0.918814 O
0.778572 0.159379 1.252147 O
0.611906 0.742712 0.585481 O
0.611906 0.576045 0.918814 O
0.611906 0.409379 1.252147 O
0.445239 0.826045 0.918814 O
0.445239 0.659379 1.252147 O
0.278572 0.909379 1.252147 O
0.945239 0.742712 0.585481 O
0.945239 0.576045 0.918814 O
0.945239 0.409379 1.252147 O
0.778572 0.826045 0.918814 O
0.778572 0.659379 1.252147 O
0.611906 0.909379 1.252147 O
0.945239 0.909379 1.252147 O
0.048665 -0.087573 0.414519 O
0.381998 -0.087573 0.414519 O
0.215332 0.162427 0.414519 O
0.215332 -0.004240 0.747853 O
0.048665 0.412427 0.414519 O
0.048665 0.245760 0.747853 O
0.048665 0.079094 1.081186 O
0.715332 -0.087573 0.414519 O
0.548665 0.162427 0.414519 O
0.548665 -0.004240 0.747853 O
0.381998 0.412427 0.414519 O
0.381998 0.245760 0.747853 O
0.381998 0.079094 1.081186 O
0.215332 0.662427 0.414519 O
0.215332 0.495760 0.747853 O
0.215332 0.329094 1.081186 O
0.048665 0.745760 0.747853 O
0.048665 0.579094 1.081186 O
0.881998 0.162427 0.414519 O
0.881998 -0.004240 0.747853 O
0.715332 0.412427 0.414519 O
0.715332 0.245760 0.747853 O
0.715332 0.079094 1.081186 O
0.548665 0.662427 0.414519 O
0.548665 0.495760 0.747853 O
0.548665 0.329094 1.081186 O
0.381998 0.745760 0.747853 O
0.381998 0.579094 1.081186 O
0.215332 0.829094 1.081186 O
0.881998 0.662427 0.414519 O
0.881998 0.495760 0.747853 O
0.881998 0.329094 1.081186 O
0.715332 0.745760 0.747853 O
0.715332 0.579094 1.081186 O
0.548665 0.829094 1.081186 O
0.881998 0.829094 1.081186 O
0.063241 0.080285 0.414519 O
0.396574 0.080285 0.414519 O
0.229907 0.330285 0.414519 O
0.229907 0.163619 0.747853 O
0.063241 0.580285 0.414519 O
0.063241 0.413619 0.747853 O
0.063241 0.246952 1.081186 O
0.729907 0.080285 0.414519 O
0.563241 0.330285 0.414519 O
0.563241 0.163619 0.747853 O
0.396574 0.580285 0.414519 O
0.396574 0.413619 0.747853 O
0.396574 0.246952 1.081186 O
0.229907 0.830285 0.414519 O
0.229907 0.663619 0.747853 O
0.229907 0.496952 1.081186 O
0.063241 0.913619 0.747853 O
0.063241 0.746952 1.081186 O
0.896574 0.330285 0.414519 O
0.896574 0.163619 0.747853 O
0.729907 0.580285 0.414519 O
0.729907 0.413619 0.747853 O
0.729907 0.246952 1.081186 O
0.563241 0.830285 0.414519 O
0.563241 0.663619 0.747853 O
0.563241 0.496952 1.081186 O
0.396574 0.913619 0.747853 O
0.396574 0.746952 1.081186 O
0.229907 0.996952 1.081186 O
0.896574 0.830285 0.414519 O
0.896574 0.663619 0.747853 O
0.896574 0.496952 1.081186 O
0.729907 0.913619 0.747853 O
0.729907 0.746952 1.081186 O
0.563241 0.996952 1.081186 O
0.896574 0.996952 1.081186 O
-0.063241 -0.080285 0.585481 O
0.270093 -0.080285 0.585481 O
0.103426 0.169715 0.585481 O
0.103426 0.003048 0.918814 O
-0.063241 0.419715 0.585481 O
-0.063241 0.253048 0.918814 O
-0.063241 0.086381 1.252147 O
0.603426 -0.080285 0.585481 O
0.436759 0.169715 0.585481 O
0.436759 0.003048 0.918814 O
0.270093 0.419715 0.585481 O
0.270093 0.253048 0.918814 O
0.270093 0.086381 1.252147 O
0.103426 0.669715 0.585481 O
0.103426 0.503048 0.918814 O
0.103426 0.336381 1.252147 O
-0.063241 0.753048 0.918814 O
-0.063241 0.586381 1.252147 O
0.770093 0.169715 0.585481 O
0.770093 0.003048 0.918814 O
0.603426 0.419715 0.585481 O
0.603426 0.253048 0.918814 O
0.603426 0.086381 1.252147 O
0.436759 0.669715 0.585481 O
0.436759 0.503048 0.918814 O
0.436759 0.336381 1.252147 O
0.270093 0.753048 0.918814 O
0.270093 0.586381 1.252147 O
0.103426 0.836381 1.252147 O
0.770093 0.669715 0.585481 O
0.770093 0.503048 0.918814 O
0.770093 0.336381 1.252147 O
0.603426 0.753048 0.918814 O
0.603426 0.586381 1.252147 O
0.436759 0.836381 1.252147 O
0.770093 0.836381 1.252147 O
-0.048665 0.087573 0.585481 O
0.284668 0.087573 0.585481 O
0.118002 0.337573 0.585481 O
0.118002 0.170906 0.918814 O
-0.048665 0.587573 0.585481 O
-0.048665 0.420906 0.918814 O
-0.048665 0.254240 1.252147 O
0.618002 0.087573 0.585481 O
0.451335 0.337573 0.585481 O
0.451335 0.170906 0.918814 O
0.284668 0.587573 0.585481 O
0.284668 0.420906 0.918814 O
0.284668 0.254240 1.252147 O
0.118002 0.837573 0.585481 O
0.118002 0.670906 0.918814 O
0.118002 0.504240 1.252147 O
-0.048665 0.920906 0.918814 O
-0.048665 0.754240 1.252147 O
0.784668 0.337573 0.585481 O
0.784668 0.170906 0.918814 O
0.618002 0.587573 0.585481 O
0.618002 0.420906 0.918814 O
0.618002 0.254240 1.252147 O
0.451335 0.837573 0.585481 O
0.451335 0.670906 0.918814 O
0.451335 0.504240 1.252147 O
0.284668 0.920906 0.918814 O
0.284668 0.754240 1.252147 O
0.118002 1.004240 1.252147 O
0.784668 0.837573 0.585481 O
0.784668 0.670906 0.918814 O
0.784668 0.504240 1.252147 O
0.618002 0.920906 0.918814 O
0.618002 0.754240 1.252147 O
0.451335 1.004240 1.252147 O
0.784668 1.004240 1.252147 O
-0.111906 0.007288 0.414519 O
0.221428 0.007288 0.414519 O
0.054761 0.257288 0.414519 O
0.054761 0.090621 0.747853 O
-0.111906 0.507288 0.414519 O
-0.111906 0.340621 0.747853 O
-0.111906 0.173955 1.081186 O
0.554761 0.007288 0.414519 O
0.388094 0.257288 0.414519 O
0.388094 0.090621 0.747853 O
0.221428 0.507288 0.414519 O
0.221428 0.340621 0.747853 O
0.221428 0.173955 1.081186 O
0.054761 0.757288 0.414519 O
0.054761 0.590621 0.747853 O
0.054761 0.423955 1.081186 O
-0.111906 0.840621 0.747853 O
-0.111906 0.673955 1.081186 O
0.721428 0.257288 0.414519 O
0.721428 0.090621 0.747853 O
0.554761 0.507288 0.414519 O
0.554761 0.340621 0.747853 O
0.554761 0.173955 1.081186 O
0.388094 0.757288 0.414519 O
0.388094 0.590621 0.747853 O
0.388094 0.423955 1.081186 O
0.221428 0.840621 0.747853 O
0.221428 0.673955 1.081186 O
0.054761 0.923955 1.081186 O
0.721428 0.757288 0.414519 O
0.721428 0.590621 0.747853 O
0.721428 0.423955 1.081186 O
0.554761 0.840621 0.747853 O
0.554761 0.673955 1.081186 O
0.388094 0.923955 1.081186 O
0.721428 0.923955 1.081186 O
-0.000000 -0.000000 0.656167 Li
0.333333 -0.000000 0.656167 Li
0.166667 0.250000 0.656167 Li
0.166667 0.083333 0.989500 Li
-0.000000 0.500000 0.656167 Li
-0.000000 0.333333 0.989500 Li
-0.000000 0.166667 1.322834 Li
0.666667 -0.000000 0.656167 Li
0.500000 0.250000 0.656167 Li
0.500000 0.083333 0.989500 Li
0.333333 0.500000 0.656167 Li
0.333333 0.333333 0.989500 Li
0.333333 0.166667 1.322834 Li
0.166667 0.750000 0.656167 Li
0.166667 0.583333 0.989500 Li
0.166667 0.416667 1.322834 Li
-0.000000 0.833333 0.989500 Li
-0.000000 0.666667 1.322834 Li
0.833333 0.250000 0.656167 Li
0.833333 0.083333 0.989500 Li
0.666667 0.500000 0.656167 Li
0.666667 0.333333 0.989500 Li
0.666667 0.166667 1.322834 Li
0.500000 0.750000 0.656167 Li
0.500000 0.583333 0.989500 Li
0.500000 0.416667 1.322834 Li
0.333333 0.833333 0.989500 Li
0.333333 0.666667 1.322834 Li
0.166667 0.916667 1.322834 Li
0.833333 0.750000 0.656167 Li
0.833333 0.583333 0.989500 Li
0.833333 0.416667 1.322834 Li
0.666667 0.833333 0.989500 Li
0.666667 0.666667 1.322834 Li
0.500000 0.916667 1.322834 Li
0.833333 0.916667 1.322834 Li
0.000000 0.000000 0.343833 Li
0.333333 -0.000000 0.343833 Li
0.166667 0.250000 0.343833 Li
0.166667 0.083333 0.677166 Li
0.000000 0.500000 0.343833 Li
0.000000 0.333333 0.677166 Li
0.000000 0.166667 1.010500 Li
0.666667 -0.000000 0.343833 Li
0.500000 0.250000 0.343833 Li
0.500000 0.083333 0.677166 Li
0.333333 0.500000 0.343833 Li
0.333333 0.333333 0.677166 Li
0.333333 0.166667 1.010500 Li
0.166667 0.750000 0.343833 Li
0.166667 0.583333 0.677166 Li
0.166667 0.416667 1.010500 Li
0.000000 0.833333 0.677166 Li
0.000000 0.666667 1.010500 Li
0.833333 0.250000 0.343833 Li
0.833333 0.083333 0.677166 Li
0.666667 0.500000 0.343833 Li
0.666667 0.333333 0.677166 Li
0.666667 0.166667 1.010500 Li
0.500000 0.750000 0.343833 Li
0.500000 0.583333 0.677166 Li
0.500000 0.416667 1.010500 Li
0.333333 0.833333 0.677166 Li
0.333333 0.666667 1.010500 Li
0.166667 0.916667 1.010500 Li
0.833333 0.750000 0.343833 Li
0.833333 0.583333 0.677166 Li
0.833333 0.416667 1.010500 Li
0.666667 0.833333 0.677166 Li
0.666667 0.666667 1.010500 Li
0.500000 0.916667 1.010500 Li
0.833333 0.916667 1.010500 Li
-0.110690 0.010478 0.546305 Li
0.222644 0.010478 0.546305 Li
0.055977 0.260478 0.546305 Li
0.055977 0.093812 0.879639 Li
-0.110690 0.510478 0.546305 Li
-0.110690 0.343812 0.879639 Li
-0.110690 0.177145 1.212972 Li
0.555977 0.010478 0.546305 Li
0.389310 0.260478 0.546305 Li
0.389310 0.093812 0.879639 Li
0.222644 0.510478 0.546305 Li
0.222644 0.343812 0.879639 Li
0.222644 0.177145 1.212972 Li
0.055977 0.760478 0.546305 Li
0.055977 0.593812 0.879639 Li
0.055977 0.427145 1.212972 Li
-0.110690 0.843812 0.879639 Li
-0.110690 0.677145 1.212972 Li
0.722644 0.260478 0.546305 Li
0.722644 0.093812 0.879639 Li
0.555977 0.510478 0.546305 Li
0.555977 0.343812 0.879639 Li
0.555977 0.177145 1.212972 Li
0.389310 0.760478 0.546305 Li
0.389310 0.593812 0.879639 Li
0.389310 0.427145 1.212972 Li
0.222644 0.843812 0.879639 Li
0.222644 0.677145 1.212972 Li
0.055977 0.927145 1.212972 Li
0.722644 0.760478 0.546305 Li
0.722644 0.593812 0.879639 Li
0.722644 0.427145 1.212972 Li
0.555977 0.843812 0.879639 Li
0.555977 0.677145 1.212972 Li
0.389310 0.927145 1.212972 Li
0.722644 0.927145 1.212972 Li
-0.044866 0.088257 0.453695 Li
0.288467 0.088257 0.453695 Li
0.121800 0.338257 0.453695 Li
0.121800 0.171590 0.787028 Li
-0.044866 0.588257 0.453695 Li
-0.044866 0.421590 0.787028 Li
-0.044866 0.254923 1.120361 Li
0.621800 0.088257 0.453695 Li
0.455134 0.338257 0.453695 Li
0.455134 0.171590 0.787028 Li
0.288467 0.588257 0.453695 Li
0.288467 0.421590 0.787028 Li
0.288467 0.254923 1.120361 Li
0.121800 0.838257 0.453695 Li
0.121800 0.671590 0.787028 Li
0.121800 0.504923 1.120361 Li
-0.044866 0.921590 0.787028 Li
-0.044866 0.754923 1.120361 Li
0.788467 0.338257 0.453695 Li
0.788467 0.171590 0.787028 Li
0.621800 0.588257 0.453695 Li
0.621800 0.421590 0.787028 Li
0.621800 0.254923 1.120361 Li
0.455134 0.838257 0.453695 Li
0.455134 0.671590 0.787028 Li
0.455134 0.504923 1.120361 Li
0.288467 0.921590 0.787028 Li
0.288467 0.754923 1.120361 Li
0.121800 1.004923 1.120361 Li
0.788467 0.838257 0.453695 Li
0.788467 0.671590 0.787028 Li
0.788467 0.504923 1.120361 Li
0.621800 0.921590 0.787028 Li
0.621800 0.754923 1.120361 Li
0.455134 1.004923 1.120361 Li
0.788467 1.004923 1.120361 Li
-0.065823 -0.077778 0.453695 Li
0.267510 -0.077778 0.453695 Li
0.100843 0.172222 0.453695 Li
0.100843 0.005555 0.787028 Li
-0.065823 0.422222 0.453695 Li
-0.065823 0.255555 0.787028 Li
-0.065823 0.088889 1.120361 Li
0.600843 -0.077778 0.453695 Li
0.434177 0.172222 0.453695 Li
0.434177 0.005555 0.787028 Li
0.267510 0.422222 0.453695 Li
0.267510 0.255555 0.787028 Li
0.267510 0.088889 1.120361 Li
0.100843 0.672222 0.453695 Li
0.100843 0.505555 0.787028 Li
0.100843 0.338889 1.120361 Li
-0.065823 0.755555 0.787028 Li
-0.065823 0.588889 1.120361 Li
0.767510 0.172222 0.453695 Li
0.767510 0.005555 0.787028 Li
0.600843 0.422222 0.453695 Li
0.600843 0.255555 0.787028 Li
0.600843 0.088889 1.120361 Li
0.434177 0.672222 0.453695 Li
0.434177 0.505555 0.787028 Li
0.434177 0.338889 1.120361 Li
0.267510 0.755555 0.787028 Li
0.267510 0.588889 1.120361 Li
0.100843 0.838889 1.120361 Li
0.767510 0.672222 0.453695 Li
0.767510 0.505555 0.787028 Li
0.767510 0.338889 1.120361 Li
0.600843 0.755555 0.787028 Li
0.600843 0.588889 1.120361 Li
0.434177 0.838889 1.120361 Li
0.767510 0.838889 1.120361 Li
0.065823 0.077778 0.546305 Li
0.399157 0.077778 0.546305 Li
0.232490 0.327778 0.546305 Li
0.232490 0.161111 0.879639 Li
0.065823 0.577778 0.546305 Li
0.065823 0.411111 0.879639 Li
0.065823 0.244445 1.212972 Li
0.732490 0.077778 0.546305 Li
0.565823 0.327778 0.546305 Li
0.565823 0.161111 0.879639 Li
0.399157 0.577778 0.546305 Li
0.399157 0.411111 0.879639 Li
0.399157 0.244445 1.212972 Li
0.232490 0.827778 0.546305 Li
0.232490 0.661111 0.879639 Li
0.232490 0.494445 1.212972 Li
0.065823 0.911111 0.879639 Li
0.065823 0.744445 1.212972 Li
0.899157 0.327778 0.546305 Li
0.899157 0.161111 0.879639 Li
0.732490 0.577778 0.546305 Li
0.732490 0.411111 0.879639 Li
0.732490 0.244445 1.212972 Li
0.565823 0.827778 0.546305 Li
0.565823 0.661111 0.879639 Li
0.565823 0.494445 1.212972 Li
0.399157 0.911111 0.879639 Li
0.399157 0.744445 1.212972 Li
0.232490 0.994445 1.212972 Li
0.899157 0.827778 0.546305 Li
0.899157 0.661111 0.879639 Li
0.899157 0.494445 1.212972 Li
0.732490 0.911111 0.879639 Li
0.732490 0.744445 1.212972 Li
0.565823 0.994445 1.212972 Li
0.899157 0.994445 1.212972 Li
0.044866 -0.088257 0.546305 Li
0.378200 -0.088257 0.546305 Li
0.211533 0.161743 0.546305 Li
0.211533 -0.004923 0.879639 Li
0.044866 0.411743 0.546305 Li
0.044866 0.245077 0.879639 Li
0.044866 0.078410 1.212972 Li
0.711533 -0.088257 0.546305 Li
0.544866 0.161743 0.546305 Li
0.544866 -0.004923 0.879639 Li
0.378200 0.411743 0.546305 Li
0.378200 0.245077 0.879639 Li
0.378200 0.078410 1.212972 Li
0.211533 0.661743 0.546305 Li
0.211533 0.495077 0.879639 Li
0.211533 0.328410 1.212972 Li
0.044866 0.745077 0.879639 Li
0.044866 0.578410 1.212972 Li
0.878200 0.161743 0.546305 Li
0.878200 -0.004923 0.879639 Li
0.711533 0.411743 0.546305 Li
0.711533 0.245077 0.879639 Li
0.711533 0.078410 1.212972 Li
0.544866 0.661743 0.546305 Li
0.544866 0.495077 0.879639 Li
0.544866 0.328410 1.212972 Li
0.378200 0.745077 0.879639 Li
0.378200 0.578410 1.212972 Li
0.211533 0.828410 1.212972 Li
0.878200 0.661743 0.546305 Li
0.878200 0.495077 0.879639 Li
0.878200 0.328410 1.212972 Li
0.711533 0.745077 0.879639 Li
0.711533 0.578410 1.212972 Li
0.544866 0.828410 1.212972 Li
0.878200 0.828410 1.212972 Li
0.110690 -0.010478 0.453695 Li
0.444023 -0.010478 0.453695 Li
0.277356 0.239522 0.453695 Li
0.277356 0.072855 0.787028 Li
0.110690 0.489522 0.453695 Li
0.110690 0.322855 0.787028 Li
0.110690 0.156188 1.120361 Li
0.777356 -0.010478 0.453695 Li
0.610690 0.239522 0.453695 Li
0.610690 0.072855 0.787028 Li
0.444023 0.489522 0.453695 Li
0.444023 0.322855 0.787028 Li
0.444023 0.156188 1.120361 Li
0.277356 0.739522 0.453695 Li
0.277356 0.572855 0.787028 Li
0.277356 0.406188 1.120361 Li
0.110690 0.822855 0.787028 Li
0.110690 0.656188 1.120361 Li
0.944023 0.239522 0.453695 Li
0.944023 0.072855 0.787028 Li
0.777356 0.489522 0.453695 Li
0.777356 0.322855 0.787028 Li
0.777356 0.156188 1.120361 Li
0.610690 0.739522 0.453695 Li
0.610690 0.572855 0.787028 Li
0.610690 0.406188 1.120361 Li
0.444023 0.822855 0.787028 Li
0.444023 0.656188 1.120361 Li
0.277356 0.906188 1.120361 Li
0.944023 0.739522 0.453695 Li
0.944023 0.572855 0.787028 Li
0.944023 0.406188 1.120361 Li
0.777356 0.822855 0.787028 Li
0.777356 0.656188 1.120361 Li
0.610690 0.906188 1.120361 Li
0.944023 0.906188 1.120361 Li

0.000000 0.000000 0.000000
0.000000 0.000000 0.000000
0.000000 0.000000 0.000000
0.000000 0.000000 0.000000
0.000000 0.000000 0.000000
0.000000 0.000000 0.000000
0.000000 0.000000 0.000000
0.000000 0.000000 0.000000
0.000000 0.000000 0.000000
0.000000 0.000000 0.000000
0.000000 0.000000 0.000000
0.000000 0.000000 0.000000
0.000000 0.000000 0.000000
0.000000 0.000000 0.000000
0.000000 0.000000 0.000000
0.000000 0.000000 0.000000
0.000000 0.000000 0.000000
0.000000 0.000000 0.000000
0.000000 0.000000 0.000000
0.000000 0.000000 0.000000
0.000000 0.000000 0.000000
0.000000 0.000000 0.000000
0.000000 0.000000 0.000000
0.000000 0.000000 0.000000
0.000000 0.000000 0.000000
0.000000 0.000000 0.000000
0.000000 0.000000 0.000000
0.000000 0.000000 0.000000
0.000000 0.000000 0.000000
0.000000 0.000000 0.000000
0.000000 0.000000 0.000000
0.000000 0.000000 0.000000
0.000000 0.000000 0.000000
0.000000 0.000000 0.000000
0.000000 0.000000 0.000000
0.000000 0.000000 0.000000
0.000000 0.000000 0.000000
0.000000 0.000000 0.000000
0.000000 0.000000 0.000000
0.000000 0.000000 0.000000
0.000000 0.000000 0.000000
0.000000 0.000000 0.000000
0.000000 0.000000 0.000000
0.000000 0.000000 0.000000
0.000000 0.000000 0.000000
0.000000 0.000000 0.000000
0.000000 0.000000 0.000000
0.000000 0.000000 0.000000
0.000000 0.000000 0.000000
0.000000 0.000000 0.000000
0.000000 0.000000 0.000000
0.000000 0.000000 0.000000
0.000000 0.000000 0.000000
0.000000 0.000000 0.000000
0.000000 0.000000 0.000000
0.000000 0.000000 0.000000
0.000000 0.000000 0.000000
0.000000 0.000000 0.000000
0.000000 0.000000 0.000000
0.000000 0.000000 0.000000
0.000000 0.000000 0.000000
0.000000 0.000000 0.000000
0.000000 0.000000 0.000000
0.000000 0.000000 0.000000
0.000000 0.000000 0.000000
0.000000 0.000000 0.000000
0.000000 0.000000 0.000000
0.000000 0.000000 0.000000
0.000000 0.000000 0.000000
0.000000 0.000000 0.000000
0.000000 0.000000 0.000000
0.000000 0.000000 0.000000
0.000000 0.000000 0.000000
0.000000 0.000000 0.000000
0.000000 0.000000 0.000000
0.000000 0.000000 0.000000
0.000000 0.000000 0.000000
0.000000 0.000000 0.000000
0.000000 0.000000 0.000000
0.000000 0.000000 0.000000
0.000000 0.000000 0.000000
0.000000 0.000000 0.000000
0.000000 0.000000 0.000000
0.000000 0.000000 0.000000
0.000000 0.000000 0.000000
0.000000 0.000000 0.000000
0.000000 0.000000 0.000000
0.000000 0.000000 0.000000
0.000000 0.000000 0.000000
0.000000 0.000000 0.000000
0.000000 0.000000 0.000000
0.000000 0.000000 0.000000
0.000000 0.000000 0.000000
0.000000 0.000000 0.000000
0.000000 0.000000 0.000000
0.000000 0.000000 0.000000
0.000000 0.000000 0.000000
0.000000 0.000000 0.000000
0.000000 0.000000 0.000000
0.000000 0.000000 0.000000
0.000000 0.000000 0.000000
0.000000 0.000000 0.000000
0.000000 0.000000 0.000000
0.000000 0.000000 0.000000
0.000000 0.000000 0.000000
0.000000 0.000000 0.000000
0.000000 0.000000 0.000000
0.000000 0.000000 0.000000
0.000000 0.000000 0.000000
0.000000 0.000000 0.000000
0.000000 0.000000 0.000000
0.000000 0.000000 0.000000
0.000000 0.000000 0.000000
0.000000 0.000000 0.000000
0.000000 0.000000 0.000000
0.000000 0.000000 0.000000
0.000000 0.000000 0.000000
0.000000 0.000000 0.000000
0.000000 0.000000 0.000000
0.000000 0.000000 0.000000
0.000000 0.000000 0.000000
0.000000 0.000000 0.000000
0.000000 0.000000 0.000000
0.000000 0.000000 0.000000
0.000000 0.000000 0.000000
0.000000 0.000000 0.000000
0.000000 0.000000 0.000000
0.000000 0.000000 0.000000
0.000000 0.000000 0.000000
0.000000 0.000000 0.000000
0.000000 0.000000 0.000000
0.000000 0.000000 0.000000
0.000000 0.000000 0.000000
0.000000 0.000000 0.000000
0.000000 0.000000 0.000000
0.000000 0.000000 0.000000
0.000000 0.000000 0.000000
0.000000 0.000000 0.000000
0.000000 0.000000 0.000000
0.000000 0.000000 0.000000
0.000000 0.000000 0.000000
0.000000 0.000000 0.000000
0.000000 0.000000 0.000000
0.000000 0.000000 0.000000
0.000000 0.000000 0.000000
0.000000 0.000000 0.000000
0.000000 0.000000 0.000000
0.000000 0.000000 0.000000
0.000000 0.000000 0.000000
0.000000 0.000000 0.000000
0.000000 0.000000 0.000000
0.000000 0.000000 0.000000
0.000000 0.000000 0.000000
0.000000 0.000000 0.000000
0.000000 0.000000 0.000000
0.000000 0.000000 0.000000
0.000000 0.000000 0.000000
0.000000 0.000000 0.000000
0.000000 0.000000 0.000000
0.000000 0.000000 0.000000
0.000000 0.000000 0.000000
0.000000 0.000000 0.000000
0.000000 0.000000 0.000000
0.000000 0.000000 0.000000
0.000000 0.000000 0.000000
0.000000 0.000000 0.000000
0.000000 0.000000 0.000000
0.000000 0.000000 0.000000
0.000000 0.000000 0.000000
0.000000 0.000000 0.000000
0.000000 0.000000 0.000000
0.000000 0.000000 0.000000
0.000000 0.000000 0.000000
0.000000 0.000000 0.000000
0.000000 0.000000 0.000000
0.000000 0.000000 0.000000
0.000000 0.000000 0.000000
0.000000 0.000000 0.000000
0.000000 0.000000 0.000000
0.000000 0.000000 0.000000
0.000000 0.000000 0.000000
0.000000 0.000000 0.000000
0.000000 0.000000 0.000000
0.000000 0.000000 0.000000
0.000000 0.000000 0.000000
0.000000 0.000000 0.000000
0.000000 0.000000 0.000000
0.000000 0.000000 0.000000
0.000000 0.000000 0.000000
0.000000 0.000000 0.000000
0.000000 0.000000 0.000000
0.000000 0.000000 0.000000
0.000000 0.000000 0.000000
0.000000 0.000000 0.000000
0.000000 0.000000 0.000000
0.000000 0.000000 0.000000
0.000000 0.000000 0.000000
0.000000 0.000000 0.000000
0.000000 0.000000 0.000000
0.000000 0.000000 0.000000
0.000000 0.000000 0.000000
0.000000 0.000000 0.000000
0.000000 0.000000 0.000000
0.000000 0.000000 0.000000
0.000000 0.000000 0.000000
0.000000 0.000000 0.000000
0.000000 0.000000 0.000000
0.000000 0.000000 0.000000
0.000000 0.000000 0.000000
0.000000 0.000000 0.000000
0.000000 0.000000 0.000000
0.000000 0.000000 0.000000
0.000000 0.000000 0.000000
0.000000 0.000000 0.000000
0.000000 0.000000 0.000000
0.000000 0.000000 0.000000
0.000000 0.000000 0.000000
0.000000 0.000000 0.000000
0.000000 0.000000 0.000000
0.000000 0.000000 0.000000
0.000000 0.000000 0.000000
0.000000 0.000000 0.000000
0.000000 0.000000 0.000000
0.000000 0.000000 0.000000
0.000000 0.000000 0.000000
0.000000 0.000000 0.000000
0.000000 0.000000 0.000000
0.000000 0.000000 0.000000
0.000000 0.000000 0.000000
0.000000 0.000000 0.000000
0.000000 0.000000 0.000000
0.000000 0.000000 0.000000
0.000000 0.000000 0.000000
0.000000 0.000000 0.000000
0.000000 0.000000 0.000000
0.000000 0.000000 0.000000
0.000000 0.000000 0.000000
0.000000 0.000000 0.000000
0.000000 0.000000 0.000000
0.000000 0.000000 0.000000
0.000000 0.000000 0.000000
0.000000 0.000000 0.000000
0.000000 0.000000 0.000000
0.000000 0.000000 0.000000
0.000000 0.000000 0.000000
0.000000 0.000000 0.000000
0.000000 0.000000 0.000000
0.000000 0.000000 0.000000
0.000000 0.000000 0.000000
0.000000 0.000000 0.000000
0.000000 0.000000 0.000000
0.000000 0.000000 0.000000
0.000000 0.000000 0.000000
0.000000 0.000000 0.000000
0.000000 0.000000 0.000000
0.000000 0.000000 0.000000
0.000000 0.000000 0.000000
0.000000 0.000000 0.000000
0.000000 0.000000 0.000000
0.000000 0.000000 0.000000
0.000000 0.000000 0.000000
0.000000 0.000000 0.000000
0.000000 0.000000 0.000000
0.000000 0.000000 0.000000
0.000000 0.000000 0.000000
0.000000 0.000000 0.000000
0.000000 0.000000 0.000000
0.000000 0.000000 0.000000
0.000000 0.000000 0.000000
0.000000 0.000000 0.000000
0.000000 0.000000 0.000000
0.000000 0.000000 0.000000
0.000000 0.000000 0.000000
0.000000 0.000000 0.000000
0.000000 0.000000 0.000000
0.000000 0.000000 0.000000
0.000000 0.000000 0.000000
0.000000 0.000000 0.000000
0.000000 0.000000 0.000000
0.000000 0.000000 0.000000
0.000000 0.000000 0.000000
0.000000 0.000000 0.000000
0.000000 0.000000 0.000000
0.000000 0.000000 0.000000
0.000000 0.000000 0.000000
0.000000 0.000000 0.000000
0.000000 0.000000 0.000000
0.000000 0.000000 0.000000
0.000000 0.000000 0.000000
0.000000 0.000000 0.000000
0.000000 0.000000 0.000000
0.000000 0.000000 0.000000
0.000000 0.000000 0.000000
0.000000 0.000000 0.000000
0.000000 0.000000 0.000000
0.000000 0.000000 0.000000
0.000000 0.000000 0.000000
0.000000 0.000000 0.000000
0.000000 0.000000 0.000000
0.000000 0.000000 0.000000
0.000000 0.000000 0.000000
0.000000 0.000000 0.000000
0.000000 0.000000 0.000000
0.000000 0.000000 0.000000
0.000000 0.000000 0.000000
0.000000 0.000000 0.000000
0.000000 0.000000 0.000000
0.000000 0.000000 0.000000
0.000000 0.000000 0.000000
0.000000 0.000000 0.000000
0.000000 0.000000 0.000000
0.000000 0.000000 0.000000
0.000000 0.000000 0.000000
0.000000 0.000000 0.000000
0.000000 0.000000 0.000000
0.000000 0.000000 0.000000
0.000000 0.000000 0.000000
0.000000 0.000000 0.000000
0.000000 0.000000 0.000000
0.000000 0.000000 0.000000
0.000000 0.000000 0.000000
0.000000 0.000000 0.000000
0.000000 0.000000 0.000000
0.000000 0.000000 0.000000
0.000000 0.000000 0.000000
0.000000 0.000000 0.000000
0.000000 0.000000 0.000000
0.000000 0.000000 0.000000
0.000000 0.000000 0.000000
0.000000 0.000000 0.000000
0.000000 0.000000 0.000000
0.000000 0.000000 0.000000
0.000000 0.000000 0.000000
0.000000 0.000000 0.000000
0.000000 0.000000 0.000000
0.000000 0.000000 0.000000
0.000000 0.000000 0.000000
0.000000 0.000000 0.000000
0.000000 0.000000 0.000000
0.000000 0.000000 0.000000
0.000000 0.000000 0.000000
0.000000 0.000000 0.000000
0.000000 0.000000 0.000000
0.000000 0.000000 0.000000
0.000000 0.000000 0.000000
0.000000 0.000000 0.000000
0.000000 0.000000 0.000000
0.000000 0.000000 0.000000
0.000000 0.000000 0.000000
0.000000 0.000000 0.000000
0.000000 0.000000 0.000000
0.000000 0.000000 0.000000
0.000000 0.000000 0.000000
0.000000 0.000000 0.000000
0.000000 0.000000 0.000000
0.000000 0.000000 0.000000
0.000000 0.000000 0.000000
0.000000 0.000000 0.000000
0.000000 0.000000 0.000000
0.000000 0.000000 0.000000
0.000000 0.000000 0.000000
0.000000 0.000000 0.000000
0.000000 0.000000 0.000000
0.000000 0.000000 0.000000
0.000000 0.000000 0.000000
0.000000 0.000000 0.000000
0.000000 0.000000 0.000000
0.000000 0.000000 0.000000
0.000000 0.000000 0.000000
0.000000 0.000000 0.000000
0.000000 0.000000 0.000000
0.000000 0.000000 0.000000
0.000000 0.000000 0.000000
0.000000 0.000000 0.000000
0.000000 0.000000 0.000000
0.000000 0.000000 0.000000
0.000000 0.000000 0.000000
0.000000 0.000000 0.000000
0.000000 0.000000 0.000000
0.000000 0.000000 0.000000
0.000000 0.000000 0.000000
0.000000 0.000000 0.000000
0.000000 0.000000 0.000000
0.000000 0.000000 0.000000
0.000000 0.000000 0.000000
0.000000 0.000000 0.000000
0.000000 0.000000 0.000000
0.000000 0.000000 0.000000
0.000000 0.000000 0.000000
0.000000 0.000000 0.000000
0.000000 0.000000 0.000000
0.000000 0.000000 0.000000
0.000000 0.000000 0.000000
0.000000 0.000000 0.000000
0.000000 0.000000 0.000000
0.000000 0.000000 0.000000
0.000000 0.000000 0.000000
0.000000 0.000000 0.000000
0.000000 0.000000 0.000000
0.000000 0.000000 0.000000
0.000000 0.000000 0.000000
0.000000 0.000000 0.000000
0.000000 0.000000 0.000000
0.000000 0.000000 0.000000
0.000000 0.000000 0.000000
0.000000 0.000000 0.000000
0.000000 0.000000 0.000000
0.000000 0.000000 0.000000
0.000000 0.000000 0.000000
0.000000 0.000000 0.000000
0.000000 0.000000 0.000000
0.000000 0.000000 0.000000
0.000000 0.000000 0.000000
0.000000 0.000000 0.000000
0.000000 0.000000 0.000000
0.000000 0.000000 0.000000
0.000000 0.000000 0.000000
0.000000 0.000000 0.000000
0.000000 0.000000 0.000000
0.000000 0.000000 0.000000
0.000000 0.000000 0.000000
0.000000 0.000000 0.000000
0.000000 0.000000 0.000000
0.000000 0.000000 0.000000
0.000000 0.000000 0.000000
0.000000 0.000000 0.000000
0.000000 0.000000 0.000000
0.000000 0.000000 0.000000
0.000000 0.000000 0.000000
0.000000 0.000000 0.000000
0.000000 0.000000 0.000000
0.000000 0.000000 0.000000
0.000000 0.000000 0.000000
0.000000 0.000000 0.000000
0.000000 0.000000 0.000000
0.000000 0.000000 0.000000
0.000000 0.000000 0.000000
0.000000 0.000000 0.000000
0.000000 0.000000 0.000000
0.000000 0.000000 0.000000
0.000000 0.000000 0.000000
0.000000 0.000000 0.000000
0.000000 0.000000 0.000000
0.000000 0.000000 0.000000
0.000000 0.000000 0.000000
0.000000 0.000000 0.000000
0.000000 0.000000 0.000000
0.000000 0.000000 0.000000
0.000000 0.000000 0.000000
0.000000 0.000000 0.000000
0.000000 0.000000 0.000000
0.000000 0.000000 0.000000
0.000000 0.000000 0.000000
0.000000 0.000000 0.000000
0.000000 0.000000 0.000000
0.000000 0.000000 0.000000
0.000000 0.000000 0.000000
0.000000 0.000000 0.000000
0.000000 0.000000 0.000000
0.000000 0.000000 0.000000
0.000000 0.000000 0.000000
0.000000 0.000000 0.000000
0.000000 0.000000 0.000000
0.000000 0.000000 0.000000
0.000000 0.000000 0.000000
0.000000 0.000000 0.000000
0.000000 0.000000 0.000000
0.000000 0.000000 0.000000
0.000000 0.000000 0.000000
0.000000 0.000000 0.000000
0.000000 0.000000 0.000000
0.000000 0.000000 0.000000
0.000000 0.000000 0.000000
0.000000 0.000000 0.000000
0.000000 0.000000 0.000000
0.000000 0.000000 0.000000
0.000000 0.000000 0.000000
0.000000 0.000000 0.000000
0.000000 0.000000 0.000000
0.000000 0.000000 0.000000
0.000000 0.000000 0.000000
0.000000 0.000000 0.000000
0.000000 0.000000 0.000000
0.000000 0.000000 0.000000
0.000000 0.000000 0.000000
0.000000 0.000000 0.000000
0.000000 0.000000 0.000000
0.000000 0.000000 0.000000
0.000000 0.000000 0.000000
0.000000 0.000000 0.000000
0.000000 0.000000 0.000000
0.000000 0.000000 0.000000
0.000000 0.000000 0.000000
0.000000 0.000000 0.000000
0.000000 0.000000 0.000000
0.000000 0.000000 0.000000
0.000000 0.000000 0.000000
0.000000 0.000000 0.000000
0.000000 0.000000 0.000000
0.000000 0.000000 0.000000
0.000000 0.000000 0.000000
0.000000 0.000000 0.000000
0.000000 0.000000 0.000000
0.000000 0.000000 0.000000
0.000000 0.000000 0.000000
0.000000 0.000000 0.000000
0.000000 0.000000 0.000000