# algorithm 
ALGO  =  Normal

# accuracy 
PREC   =  Accurate
LREAL  =  Auto
ENCUT  =  520
NELM   =  100
EDIFF  =  5e-05

# ionic relaxation 
ISIF    =  2
IBRION  =  -1
NSW     =  0

# occupation 
ISMEAR  =  -5
SIGMA   =  0.05

# spin 
ISPIN   =  2
MAGMOM  =  0.6

# IO control 
ICHARG  =  0
LWAVE   =  False

# analyzer 
LORBIT  =  11

