ALGO = D
EDIFF = 5e-05
ENCUT = 520
IBRION = 2
ISIF = 2
ISMEAR = 0
ISPIN = 2
LASPH = True
LORBIT = 11
LREAL = Auto
LWAVE = False
MAGMOM = 1*0.6
NELM = 300
NSW = 99
PREC = Accurate
SIGMA = 0.05
