K1
1.0
10.000000 0.000000 0.000000
0.000000 10.000000 0.000000
0.000000 0.000000 10.000000
K
1
direct
0.500000 0.500000 0.500000 K
