# algorithm 
ALGO  =  D

# accuracy 
PREC   =  N
LREAL  =  False
LASPH  =  True
ENCUT  =  520.0
NELM   =  100
EDIFF  =  1e-07

# ionic relaxation 
ISIF    =  3
EDIFFG  =  -0.005
IBRION  =  2
NSW     =  50
TIME    =  0.4

# occupation 
ISMEAR  =  0
SIGMA   =  0.1

# spin 
ISPIN  =  1

# IO control 
LWAVE   =  True
LCHARG  =  False

# analyzer 
LORBIT  =  12

# hybrid functional 
LHFCALC   =  True
PRECFOCK  =  Fast
AEXX      =  0.25
HFSCREEN  =  0.208

# parallel 
KPAR  =  2

