Generated by VISE. Formula: MgO SG: 225
158
Reciprocal
0.0 0.0 0.0 1 None
0.125 0.0 0.0 8 None
0.25 0.0 0.0 8 None
0.375 0.0 0.0 8 None
0.5 0.0 0.0 4 None
0.125 0.125 0.0 6 None
0.25 0.125 0.0 24 None
0.375 0.125 0.0 24 None
0.5 0.125 0.0 24 None
-0.375 0.125 0.0 24 None
-0.25 0.125 0.0 24 None
-0.125 0.125 0.0 12 None
0.25 0.25 0.0 6 None
0.375 0.25 0.0 24 None
0.5 0.25 0.0 24 None
-0.375 0.25 0.0 24 None
-0.25 0.25 0.0 12 None
0.375 0.375 0.0 6 None
0.5 0.375 0.0 24 None
-0.375 0.375 0.0 12 None
0.5 0.5 0.0 3 None
0.375 0.25 0.125 24 None
0.5 0.25 0.125 48 None
-0.375 0.25 0.125 24 None
0.5 0.375 0.125 24 None
-0.375 0.375 0.125 48 None
-0.25 0.375 0.125 24 None
-0.375 0.5 0.125 12 None
-0.25 0.5 0.25 6 None
0.061475409836065587 0.061475409836065587 0.12295081967213117 0 
0.055327868852458995 0.055327868852458995 0.11065573770491799 0 
0.04918032786885246 0.04918032786885246 0.09836065573770492 0 
0.04303278688524592 0.04303278688524592 0.08606557377049184 0 
0.03688524590163933 0.03688524590163933 0.07377049180327866 0 
0.030737704918032793 0.030737704918032793 0.061475409836065587 0 
0.024590163934426257 0.024590163934426257 0.049180327868852514 0 
0.018442622950819665 0.018442622950819665 0.03688524590163933 0 
0.012295081967213128 0.012295081967213128 0.024590163934426257 0 
0.0061475409836065364 0.0061475409836065364 0.012295081967213073 0 
0.0 0.0 0.0 0 GAMMA
0.01 0.01 0.01 0 
0.02 0.02 0.02 0 
0.03 0.03 0.03 0 
0.04 0.04 0.04 0 
0.05 0.05 0.05 0 
0.06 0.06 0.06 0 
0.07 0.07 0.07 0 
0.08 0.08 0.08 0 
0.09 0.09 0.09 0 
0.1 0.1 0.1 0 
0.11 0.11 0.11 0 
0.12 0.12 0.12 0 
0.13 0.13 0.13 0 
0.14 0.14 0.14 0 
0.15 0.15 0.15 0 
0.16 0.16 0.16 0 
0.17 0.17 0.17 0 
0.18 0.18 0.18 0 
0.19 0.19 0.19 0 
0.2 0.2 0.2 0 
0.21 0.21 0.21 0 
0.22 0.22 0.22 0 
0.23 0.23 0.23 0 
0.24 0.24 0.24 0 
0.25 0.25 0.25 0 
0.26 0.26 0.26 0 
0.27 0.27 0.27 0 
0.28 0.28 0.28 0 
0.29 0.29 0.29 0 
0.3 0.3 0.3 0 
0.31 0.31 0.31 0 
0.32 0.32 0.32 0 
0.33 0.33 0.33 0 
0.34 0.34 0.34 0 
0.35 0.35 0.35 0 
0.36 0.36 0.36 0 
0.37 0.37 0.37 0 
0.38 0.38 0.38 0 
0.39 0.39 0.39 0 
0.4 0.4 0.4 0 
0.41 0.41 0.41 0 
0.42 0.42 0.42 0 
0.43 0.43 0.43 0 
0.44 0.44 0.44 0 
0.45 0.45 0.45 0 
0.46 0.46 0.46 0 
0.47 0.47 0.47 0 
0.48 0.48 0.48 0 
0.49 0.49 0.49 0 
0.5 0.5 0.5 0 L
0.5 0.49375 0.50625 0 
0.5 0.4875 0.5125 0 
0.5 0.48125 0.51875 0 
0.5 0.475 0.525 0 
0.5 0.46875 0.53125 0 
0.5 0.4625 0.5375 0 
0.5 0.45625 0.54375 0 
0.5 0.45 0.55 0 
0.5 0.44375 0.55625 0 
0.5 0.4375 0.5625 0 
0.5 0.43125 0.56875 0 
0.5 0.425 0.575 0 
0.5 0.41875 0.58125 0 
0.5 0.4125 0.5875 0 
0.5 0.40625 0.59375 0 
0.5 0.4 0.6 0 
0.5 0.39375 0.60625 0 
0.5 0.3875 0.6125 0 
0.5 0.38125 0.61875 0 
0.5 0.375 0.625 0 
0.5 0.36875 0.63125 0 
0.5 0.3625 0.6375 0 
0.5 0.35625 0.64375 0 
0.5 0.35 0.65 0 
0.5 0.34375 0.65625 0 
0.5 0.3375 0.6625 0 
0.5 0.33125 0.66875 0 
0.5 0.325 0.675 0 
0.5 0.31875 0.68125 0 
0.5 0.3125 0.6875 0 
0.5 0.30625 0.69375 0 
0.5 0.3 0.7 0 
0.5 0.29375 0.70625 0 
0.5 0.2875 0.7125 0 
0.5 0.28125 0.71875 0 
0.5 0.275 0.725 0 
0.5 0.26875 0.73125 0 
0.5 0.2625 0.7375 0 
0.5 0.25625 0.74375 0 
0.5 0.25 0.75 0 W
0.5 0.24107142857142858 0.7410714285714286 0 
0.5 0.23214285714285715 0.7321428571428571 0 
0.5 0.22321428571428573 0.7232142857142857 0 
0.5 0.2142857142857143 0.7142857142857143 0 
0.5 0.20535714285714285 0.7053571428571429 0 
0.5 0.19642857142857142 0.6964285714285714 0 
0.5 0.1875 0.6875 0 
0.5 0.17857142857142858 0.6785714285714286 0 
0.5 0.16964285714285715 0.6696428571428571 0 
0.5 0.1607142857142857 0.6607142857142857 0 
0.5 0.1517857142857143 0.6517857142857143 0 
0.5 0.14285714285714285 0.6428571428571429 0 
0.5 0.13392857142857142 0.6339285714285714 0 
0.5 0.125 0.625 0 
0.5 0.11607142857142858 0.6160714285714286 0 
0.5 0.10714285714285715 0.6071428571428572 0 
0.5 0.09821428571428573 0.5982142857142857 0 
0.5 0.08928571428571427 0.5892857142857143 0 
0.5 0.08035714285714285 0.5803571428571428 0 
0.5 0.07142857142857142 0.5714285714285714 0 
0.5 0.0625 0.5625 0 
0.5 0.053571428571428575 0.5535714285714286 0 
0.5 0.04464285714285715 0.5446428571428572 0 
0.5 0.035714285714285726 0.5357142857142857 0 
0.5 0.026785714285714274 0.5267857142857143 0 
0.5 0.01785714285714285 0.5178571428571428 0 
0.5 0.008928571428571425 0.5089285714285714 0 
0.5 0.0 0.5 0 X
