Generated by VISE. task: dielectric, kpt density: 1.5, factor: 2
0
Gamma
8 8 4
