Ni Ti                                    150942
   1.00000000000000     
     7.2791246921438821    0.0000022305531705    0.0000000000000000
    -3.6395642777876502    6.3039057854345959    0.0000000000000000
     0.0000000000000000    0.0000000000000000    5.2625465856348326
   Ni   Ti
     9     9
Direct
  0.0000000000000000  0.0000000000000000  0.5740321347236730
  0.3333333333333357  0.6666666666666643  0.3686116093784975
  0.6666666666666643  0.3333333333333357  0.5769396628772938
  0.0233571738814788  0.6665305130302457  0.1078764299798038
  0.3334694869697472  0.3568266608512332  0.1078764299798038
  0.6431733391487668  0.9766428261185212  0.1078764299798038
  0.9733570781210474  0.3069181830479337  0.8477610363871975
  0.6930818169520663  0.6664388950731137  0.8477610363871975
  0.3335611049268863  0.0266429218789526  0.8477610363871975
  0.0000000000000000  0.0000000000000000  0.0372298999299545
  0.3333333333333357  0.6666666666666643  0.9017911712782904
  0.6666666666666643  0.3333333333333357  0.0403751263692342
  0.0100476739419548  0.6663910411855696  0.6268946567822198
  0.3336089588144304  0.3436566327563852  0.6268946567822198
  0.6563433672436148  0.9899523260580452  0.6268946567822198
  0.9934617636130127  0.3264114183773543  0.3381159382140524
  0.6735885816226457  0.6670503452356513  0.3381159382140524
  0.3329496547643487  0.0065382363869873  0.3381159382140524
 
  0.00000000E+00  0.00000000E+00  0.00000000E+00
  0.00000000E+00  0.00000000E+00  0.00000000E+00
  0.00000000E+00  0.00000000E+00  0.00000000E+00
  0.00000000E+00  0.00000000E+00  0.00000000E+00
  0.00000000E+00  0.00000000E+00  0.00000000E+00
  0.00000000E+00  0.00000000E+00  0.00000000E+00
  0.00000000E+00  0.00000000E+00  0.00000000E+00
  0.00000000E+00  0.00000000E+00  0.00000000E+00
  0.00000000E+00  0.00000000E+00  0.00000000E+00
  0.00000000E+00  0.00000000E+00  0.00000000E+00
  0.00000000E+00  0.00000000E+00  0.00000000E+00
  0.00000000E+00  0.00000000E+00  0.00000000E+00
  0.00000000E+00  0.00000000E+00  0.00000000E+00
  0.00000000E+00  0.00000000E+00  0.00000000E+00
  0.00000000E+00  0.00000000E+00  0.00000000E+00
  0.00000000E+00  0.00000000E+00  0.00000000E+00
  0.00000000E+00  0.00000000E+00  0.00000000E+00
  0.00000000E+00  0.00000000E+00  0.00000000E+00
