Cs C Li Fe N                             1000
   1.00000000000000     
     0.0000000000000000    5.2333222529965466    5.2333222529965466
     5.2333222529965466    0.0000000000000000    5.2333222529965466
     5.2333222529965466    5.2333222529965466    0.0000000000000000
   Cs   C    Li   Fe   N 
     2     6     1     1     6
Direct
  0.7500000000000000  0.7500000000000000  0.7500000000000000
  0.2500000000000000  0.2500000000000000  0.2500000000000000
  0.8208267638833746  0.1791732361166254  0.1791732361166254
  0.1791732361166254  0.8208267638833746  0.8208267638833746
  0.1791732361166254  0.1791732361166254  0.8208267638833746
  0.1791732361166254  0.8208267638833746  0.1791732361166254
  0.8208267638833746  0.1791732361166254  0.8208267638833746
  0.8208267638833746  0.8208267638833746  0.1791732361166254
  0.5000000000000000  0.5000000000000000  0.5000000000000000
  0.0000000000000000  0.0000000000000000  0.0000000000000000
  0.7084535739377742  0.2915464260622258  0.2915464260622258
  0.2915464260622258  0.7084535739377742  0.7084535739377742
  0.2915464260622258  0.2915464260622258  0.7084535739377742
  0.2915464260622258  0.7084535739377742  0.2915464260622258
  0.7084535739377742  0.2915464260622258  0.7084535739377742
  0.7084535739377742  0.7084535739377742  0.2915464260622258
 
  0.00000000E+00  0.00000000E+00  0.00000000E+00
  0.00000000E+00  0.00000000E+00  0.00000000E+00
  0.00000000E+00  0.00000000E+00  0.00000000E+00
  0.00000000E+00  0.00000000E+00  0.00000000E+00
  0.00000000E+00  0.00000000E+00  0.00000000E+00
  0.00000000E+00  0.00000000E+00  0.00000000E+00
  0.00000000E+00  0.00000000E+00  0.00000000E+00
  0.00000000E+00  0.00000000E+00  0.00000000E+00
  0.00000000E+00  0.00000000E+00  0.00000000E+00
  0.00000000E+00  0.00000000E+00  0.00000000E+00
  0.00000000E+00  0.00000000E+00  0.00000000E+00
  0.00000000E+00  0.00000000E+00  0.00000000E+00
  0.00000000E+00  0.00000000E+00  0.00000000E+00
  0.00000000E+00  0.00000000E+00  0.00000000E+00
  0.00000000E+00  0.00000000E+00  0.00000000E+00
  0.00000000E+00  0.00000000E+00  0.00000000E+00
