As O                                     10015
   1.00000000000000     
     8.6658992808529796    0.0000000000000000    0.0000000000000000
     0.0000000000000000    8.6658992808529796    0.0000000000000000
     0.0000000000000000    0.0000000000000000    4.6663424631366839
   As   O 
     8    20
Direct
  0.9019785328371270  0.9019785328371270  0.0000000000000000
  0.0980214671628730  0.0980214671628730  0.5000000000000000
  0.5980214671628730  0.4019785328371270  0.2500000000000000
  0.4019785328371270  0.5980214671628730  0.7500000000000000
  0.2843619687426298  0.2843619687426298  0.0000000000000000
  0.7156380312573702  0.7156380312573702  0.5000000000000000
  0.2156380312573702  0.7843619687426298  0.2500000000000000
  0.7843619687426298  0.2156380312573702  0.7500000000000000
  0.5570773623261402  0.5570773623261402  0.0000000000000000
  0.4429226376738669  0.4429226376738669  0.5000000000000000
  0.9429226376738598  0.0570773623261331  0.2500000000000000
  0.0570773623261331  0.9429226376738598  0.7500000000000000
  0.7338695530868762  0.8461844654164068  0.2294899567549109
  0.1538155345835932  0.2661304469131238  0.2705100432450891
  0.2661304469131238  0.1538155345835932  0.7294899567549109
  0.7661304469131238  0.3461844654164068  0.0205100432450891
  0.2338695530868762  0.6538155345835932  0.5205100432450891
  0.6538155345835932  0.2338695530868762  0.4794899567549109
  0.8461844654164068  0.7338695530868762  0.7705100432450891
  0.3461844654164068  0.7661304469131238  0.9794899567549109
  0.7469105523428539  0.5226812796016489  0.4254961545650531
  0.4773187203983511  0.2530894476571461  0.0745038454349469
  0.2530894476571461  0.4773187203983511  0.9254961545650531
  0.7530894476571461  0.0226812796016489  0.8245038454349469
  0.2469105523428539  0.9773187203983511  0.3245038454349469
  0.9773187203983511  0.2469105523428539  0.6754961545650531
  0.5226812796016489  0.7469105523428539  0.5745038454349469
  0.0226812796016489  0.7530894476571461  0.1754961545650531
 
  0.00000000E+00  0.00000000E+00  0.00000000E+00
  0.00000000E+00  0.00000000E+00  0.00000000E+00
  0.00000000E+00  0.00000000E+00  0.00000000E+00
  0.00000000E+00  0.00000000E+00  0.00000000E+00
  0.00000000E+00  0.00000000E+00  0.00000000E+00
  0.00000000E+00  0.00000000E+00  0.00000000E+00
  0.00000000E+00  0.00000000E+00  0.00000000E+00
  0.00000000E+00  0.00000000E+00  0.00000000E+00
  0.00000000E+00  0.00000000E+00  0.00000000E+00
  0.00000000E+00  0.00000000E+00  0.00000000E+00
  0.00000000E+00  0.00000000E+00  0.00000000E+00
  0.00000000E+00  0.00000000E+00  0.00000000E+00
  0.00000000E+00  0.00000000E+00  0.00000000E+00
  0.00000000E+00  0.00000000E+00  0.00000000E+00
  0.00000000E+00  0.00000000E+00  0.00000000E+00
  0.00000000E+00  0.00000000E+00  0.00000000E+00
  0.00000000E+00  0.00000000E+00  0.00000000E+00
  0.00000000E+00  0.00000000E+00  0.00000000E+00
  0.00000000E+00  0.00000000E+00  0.00000000E+00
  0.00000000E+00  0.00000000E+00  0.00000000E+00
  0.00000000E+00  0.00000000E+00  0.00000000E+00
  0.00000000E+00  0.00000000E+00  0.00000000E+00
  0.00000000E+00  0.00000000E+00  0.00000000E+00
  0.00000000E+00  0.00000000E+00  0.00000000E+00
  0.00000000E+00  0.00000000E+00  0.00000000E+00
  0.00000000E+00  0.00000000E+00  0.00000000E+00
  0.00000000E+00  0.00000000E+00  0.00000000E+00
  0.00000000E+00  0.00000000E+00  0.00000000E+00
