Ga Li                                    100051
   1.00000000000000     
     2.2336516818601351   -4.7398734277371668    0.0000000000000000
     2.2336516818601351    4.7398734277371668    0.0000000000000000
     0.0000000000000000    0.0000000000000000    4.3187279639835996
   Ga   Li
     2     4
Direct
  0.9226566508022458  0.0773433491977542  0.2500000000000000
  0.0773433491977542  0.9226566508022458  0.7500000000000000
  0.2400601616088736  0.7599398383911264  0.2500000000000000
  0.7599398383911264  0.2400601616088736  0.7500000000000000
  0.5863709045125134  0.4136290954874866  0.2500000000000000
  0.4136290954874866  0.5863709045125134  0.7500000000000000
 
  0.00000000E+00  0.00000000E+00  0.00000000E+00
  0.00000000E+00  0.00000000E+00  0.00000000E+00
  0.00000000E+00  0.00000000E+00  0.00000000E+00
  0.00000000E+00  0.00000000E+00  0.00000000E+00
  0.00000000E+00  0.00000000E+00  0.00000000E+00
  0.00000000E+00  0.00000000E+00  0.00000000E+00
