F Ba Fe                                  14129
   1.00000000000000     
    -7.4517864118297954    7.4517862878876224    3.8345344798164964
     7.4517864118297954   -7.4517862878876224    3.8345344798164964
     7.4517862878876224    7.4517864118297954   -3.8345344798164964
   F    Ba   Fe
    40     8     8
Direct
  0.0113212377047844  0.0113212377047844  0.0000000000000000
  0.5115855816731525  0.5115855816731525  0.0000000000000000
  0.3694071213618884  0.2972628278497922  0.1662975596617358
  0.1309652681880635  0.2031095617001739  0.8337024403382642
  0.2031095617001739  0.3694071213618884  0.0721442935121033
  0.2972628278497922  0.1309652681880635  0.9278557064878967
  0.8912401420107088  0.8239834472483096  0.1681635960283572
  0.6558198512199525  0.7230765459823587  0.8318364039716357
  0.7230765459823587  0.8912401420107088  0.0672566947623920
  0.8239834472483096  0.6558198512199525  0.9327433052376080
  0.7620662565500425  0.2620662565500353  0.5000000000000000
  0.2620662565500353  0.7620662565500425  0.5000000000000000
  0.4621497035611171  0.1319493911765619  0.5658362895783000
  0.5661131015982619  0.8963134139828171  0.4341637104217000
  0.8963134139828171  0.4621497035611171  0.3302003123845481
  0.1319493911765619  0.5661131015982619  0.6697996876154519
  0.9446577629867932  0.6220980536263525  0.5427202986695292
  0.0793777549568162  0.4019374643172569  0.4572797013304708
  0.4019374643172569  0.9446577629867932  0.3225597093604335
  0.6220980536263525  0.0793777549568162  0.6774402906395594
  0.5682368146326411  0.4339685703939153  0.6547243556142419
  0.7792442147796663  0.9135124590183992  0.3452756443857581
  0.9135124590183992  0.5682368146326411  0.1342682442387257
  0.4339685703939153  0.7792442147796663  0.8657317557612672
  0.2302797983347986  0.0892225892557263  0.6510490728871687
  0.4381735163685576  0.5792307254476299  0.3489509271128313
  0.5792307254476299  0.2302797983347986  0.1410572090790652
  0.0892225892557263  0.4381735163685576  0.8589427909209348
  0.4655495334184678  0.2807364065961551  0.3889496290129273
  0.8917867775832349  0.0765999044055476  0.6110503709870727
  0.0765999044055476  0.4655495334184678  0.1848131268223128
  0.2807364065961551  0.8917867775832349  0.8151868731776872
  0.1281251493738935  0.9368424233115604  0.3874038212421738
  0.5494386020693938  0.7407213281317198  0.6125961787578262
  0.7407213281317198  0.1281251493738935  0.1912827260623189
  0.9368424233115604  0.5494386020693938  0.8087172739376811
  0.2320163882633608  0.2616594423593241  0.4839870049517145
  0.7776724374076096  0.7480293833116392  0.5160129950482855
  0.7480293833116392  0.2320163882633608  0.9703569459040295
  0.2616594423593241  0.7776724374076096  0.0296430540959705
  0.0583091229187858  0.2248164178290040  0.2696128958770529
  0.9552035219519581  0.7886962270417328  0.7303871041229471
  0.7886962270417328  0.0583091229187858  0.8334927050897818
  0.2248164178290040  0.9552035219519581  0.1665072949102182
  0.7541047948381774  0.5762764778877667  0.3129258826632935
  0.2633505952244874  0.4411789121748910  0.6870741173367136
  0.4411789121748910  0.7541047948381774  0.1778283169504107
  0.5762764778877667  0.2633505952244874  0.8221716830495893
  0.2636043422275947  0.2636043422275947  0.0000000000000000
  0.7595468568822881  0.7595468568822881  0.0000000000000000
  0.5113427513058397  0.0113427513058397  0.5000000000000000
  0.0113427513058397  0.5113427513058397  0.5000000000000000
  0.3392393408022301  0.1907438299150996  0.5162431608655567
  0.6745006690495572  0.8229961799366805  0.4837568391344433
  0.8229961799366805  0.3392393408022301  0.1484955108871233
  0.1907438299150996  0.6745006690495572  0.8515044891128767
 
  0.00000000E+00  0.00000000E+00  0.00000000E+00
  0.00000000E+00  0.00000000E+00  0.00000000E+00
  0.00000000E+00  0.00000000E+00  0.00000000E+00
  0.00000000E+00  0.00000000E+00  0.00000000E+00
  0.00000000E+00  0.00000000E+00  0.00000000E+00
  0.00000000E+00  0.00000000E+00  0.00000000E+00
  0.00000000E+00  0.00000000E+00  0.00000000E+00
  0.00000000E+00  0.00000000E+00  0.00000000E+00
  0.00000000E+00  0.00000000E+00  0.00000000E+00
  0.00000000E+00  0.00000000E+00  0.00000000E+00
  0.00000000E+00  0.00000000E+00  0.00000000E+00
  0.00000000E+00  0.00000000E+00  0.00000000E+00
  0.00000000E+00  0.00000000E+00  0.00000000E+00
  0.00000000E+00  0.00000000E+00  0.00000000E+00
  0.00000000E+00  0.00000000E+00  0.00000000E+00
  0.00000000E+00  0.00000000E+00  0.00000000E+00
  0.00000000E+00  0.00000000E+00  0.00000000E+00
  0.00000000E+00  0.00000000E+00  0.00000000E+00
  0.00000000E+00  0.00000000E+00  0.00000000E+00
  0.00000000E+00  0.00000000E+00  0.00000000E+00
  0.00000000E+00  0.00000000E+00  0.00000000E+00
  0.00000000E+00  0.00000000E+00  0.00000000E+00
  0.00000000E+00  0.00000000E+00  0.00000000E+00
  0.00000000E+00  0.00000000E+00  0.00000000E+00
  0.00000000E+00  0.00000000E+00  0.00000000E+00
  0.00000000E+00  0.00000000E+00  0.00000000E+00
  0.00000000E+00  0.00000000E+00  0.00000000E+00
  0.00000000E+00  0.00000000E+00  0.00000000E+00
  0.00000000E+00  0.00000000E+00  0.00000000E+00
  0.00000000E+00  0.00000000E+00  0.00000000E+00
  0.00000000E+00  0.00000000E+00  0.00000000E+00
  0.00000000E+00  0.00000000E+00  0.00000000E+00
  0.00000000E+00  0.00000000E+00  0.00000000E+00
  0.00000000E+00  0.00000000E+00  0.00000000E+00
  0.00000000E+00  0.00000000E+00  0.00000000E+00
  0.00000000E+00  0.00000000E+00  0.00000000E+00
  0.00000000E+00  0.00000000E+00  0.00000000E+00
  0.00000000E+00  0.00000000E+00  0.00000000E+00
  0.00000000E+00  0.00000000E+00  0.00000000E+00
  0.00000000E+00  0.00000000E+00  0.00000000E+00
  0.00000000E+00  0.00000000E+00  0.00000000E+00
  0.00000000E+00  0.00000000E+00  0.00000000E+00
  0.00000000E+00  0.00000000E+00  0.00000000E+00
  0.00000000E+00  0.00000000E+00  0.00000000E+00
  0.00000000E+00  0.00000000E+00  0.00000000E+00
  0.00000000E+00  0.00000000E+00  0.00000000E+00
  0.00000000E+00  0.00000000E+00  0.00000000E+00
  0.00000000E+00  0.00000000E+00  0.00000000E+00
  0.00000000E+00  0.00000000E+00  0.00000000E+00
  0.00000000E+00  0.00000000E+00  0.00000000E+00
  0.00000000E+00  0.00000000E+00  0.00000000E+00
  0.00000000E+00  0.00000000E+00  0.00000000E+00
  0.00000000E+00  0.00000000E+00  0.00000000E+00
  0.00000000E+00  0.00000000E+00  0.00000000E+00
  0.00000000E+00  0.00000000E+00  0.00000000E+00
  0.00000000E+00  0.00000000E+00  0.00000000E+00
