Ni B Ba                                  100288
   1.00000000000000     
     4.9097908271071846    2.8346690556950880    4.7466749029298931
    -4.9097908271071846    2.8346690556950880    4.7466749029298931
     0.0000000000000000   -5.6693381113901760    4.7466749029298931
   Ni   B    Ba
    18    12     4
Direct
  0.2500000000000000  0.7840864528574443  0.7159135471425557
  0.7840864528574443  0.7159135471425557  0.2500000000000000
  0.7159135471425557  0.2500000000000000  0.7840864528574443
  0.7500000000000000  0.2159135471425557  0.2840864528574443
  0.2159135471425557  0.2840864528574443  0.7500000000000000
  0.2840864528574443  0.7500000000000000  0.2159135471425557
  0.9323585256935587  0.4244155136354877  0.3915149339451247
  0.1084850660548753  0.0755844863645123  0.5676414743064413
  0.3915149339451247  0.9323585256935587  0.4244155136354877
  0.4323585256935587  0.8915149339451247  0.9244155136354877
  0.5755844863645123  0.6084850660548753  0.0676414743064413
  0.4244155136354877  0.3915149339451247  0.9323585256935587
  0.8915149339451247  0.9244155136354877  0.4323585256935587
  0.9244155136354877  0.4323585256935587  0.8915149339451247
  0.0755844863645123  0.5676414743064413  0.1084850660548753
  0.5676414743064413  0.1084850660548753  0.0755844863645123
  0.6084850660548753  0.0676414743064413  0.5755844863645123
  0.0676414743064413  0.5755844863645123  0.6084850660548753
  0.0331539078884973  0.6875060345071518  0.3470823012308841
  0.1529176987691159  0.8124939654928482  0.4668460921114956
  0.3470823012308841  0.0331539078884973  0.6875060345071518
  0.5331539078885044  0.8470823012308841  0.1875060345071518
  0.3124939654928482  0.6529176987691159  0.9668460921114956
  0.6875060345071518  0.3470823012308841  0.0331539078884973
  0.8470823012308841  0.1875060345071518  0.5331539078885044
  0.1875060345071518  0.5331539078885044  0.8470823012308841
  0.8124939654928482  0.4668460921114956  0.1529176987691159
  0.4668460921114956  0.1529176987691159  0.8124939654928482
  0.6529176987691159  0.9668460921114956  0.3124939654928482
  0.9668460921114956  0.3124939654928482  0.6529176987691159
  0.1226211156700998  0.1226211156700998  0.1226211156700998
  0.3773788843299002  0.3773788843299002  0.3773788843299002
  0.6226211156700998  0.6226211156700998  0.6226211156700998
  0.8773788843299002  0.8773788843299002  0.8773788843299002
 
  0.00000000E+00  0.00000000E+00  0.00000000E+00
  0.00000000E+00  0.00000000E+00  0.00000000E+00
  0.00000000E+00  0.00000000E+00  0.00000000E+00
  0.00000000E+00  0.00000000E+00  0.00000000E+00
  0.00000000E+00  0.00000000E+00  0.00000000E+00
  0.00000000E+00  0.00000000E+00  0.00000000E+00
  0.00000000E+00  0.00000000E+00  0.00000000E+00
  0.00000000E+00  0.00000000E+00  0.00000000E+00
  0.00000000E+00  0.00000000E+00  0.00000000E+00
  0.00000000E+00  0.00000000E+00  0.00000000E+00
  0.00000000E+00  0.00000000E+00  0.00000000E+00
  0.00000000E+00  0.00000000E+00  0.00000000E+00
  0.00000000E+00  0.00000000E+00  0.00000000E+00
  0.00000000E+00  0.00000000E+00  0.00000000E+00
  0.00000000E+00  0.00000000E+00  0.00000000E+00
  0.00000000E+00  0.00000000E+00  0.00000000E+00
  0.00000000E+00  0.00000000E+00  0.00000000E+00
  0.00000000E+00  0.00000000E+00  0.00000000E+00
  0.00000000E+00  0.00000000E+00  0.00000000E+00
  0.00000000E+00  0.00000000E+00  0.00000000E+00
  0.00000000E+00  0.00000000E+00  0.00000000E+00
  0.00000000E+00  0.00000000E+00  0.00000000E+00
  0.00000000E+00  0.00000000E+00  0.00000000E+00
  0.00000000E+00  0.00000000E+00  0.00000000E+00
  0.00000000E+00  0.00000000E+00  0.00000000E+00
  0.00000000E+00  0.00000000E+00  0.00000000E+00
  0.00000000E+00  0.00000000E+00  0.00000000E+00
  0.00000000E+00  0.00000000E+00  0.00000000E+00
  0.00000000E+00  0.00000000E+00  0.00000000E+00
  0.00000000E+00  0.00000000E+00  0.00000000E+00
  0.00000000E+00  0.00000000E+00  0.00000000E+00
  0.00000000E+00  0.00000000E+00  0.00000000E+00
  0.00000000E+00  0.00000000E+00  0.00000000E+00
  0.00000000E+00  0.00000000E+00  0.00000000E+00
