Pb K O                                   1412
   1.00000000000000     
    -4.2364616423434782    4.2364616423434782    4.2364616423434782
     4.2364616423434782   -4.2364616423434782    4.2364616423434782
     4.2364616423434782    4.2364616423434782   -4.2364616423434782
   Pb   K    O 
     4     4     6
Direct
  0.5141356721023911  0.5000000000000000  0.0000000000000000
  0.5000000000000000  0.0000000000000000  0.5141356721023911
  0.0000000000000000  0.5141356721023911  0.5000000000000000
  0.9858643278976089  0.9858643278976089  0.9858643278976089
  0.0466899830730299  0.5000000000000000  0.0000000000000000
  0.5000000000000000  0.0000000000000000  0.0466899830730299
  0.0000000000000000  0.0466899830730299  0.5000000000000000
  0.4533100169269701  0.4533100169269701  0.4533100169269701
  0.2889500550990931  0.5389500550990931  0.7500000000000000
  0.7500000000000000  0.2889500550990931  0.5389500550990931
  0.2500000000000000  0.2110499449009069  0.9610499449009069
  0.9610499449009069  0.2500000000000000  0.2110499449009069
  0.2110499449009069  0.9610499449009069  0.2500000000000000
  0.5389500550990931  0.7500000000000000  0.2889500550990931
 
  0.00000000E+00  0.00000000E+00  0.00000000E+00
  0.00000000E+00  0.00000000E+00  0.00000000E+00
  0.00000000E+00  0.00000000E+00  0.00000000E+00
  0.00000000E+00  0.00000000E+00  0.00000000E+00
  0.00000000E+00  0.00000000E+00  0.00000000E+00
  0.00000000E+00  0.00000000E+00  0.00000000E+00
  0.00000000E+00  0.00000000E+00  0.00000000E+00
  0.00000000E+00  0.00000000E+00  0.00000000E+00
  0.00000000E+00  0.00000000E+00  0.00000000E+00
  0.00000000E+00  0.00000000E+00  0.00000000E+00
  0.00000000E+00  0.00000000E+00  0.00000000E+00
  0.00000000E+00  0.00000000E+00  0.00000000E+00
  0.00000000E+00  0.00000000E+00  0.00000000E+00
  0.00000000E+00  0.00000000E+00  0.00000000E+00
