Cu Se Br                                 10129
   1.00000000000000     
    14.1866854729431164    0.0000000000000000    0.0000000000000000
     0.0000000000000000    4.4184573580232271    0.0000000000000000
     0.0000000000000000    0.0000000000000000    7.6246978263273020
   Cu   Se   Br
     4    12     4
Direct
  0.7500000000000000  0.2888214961980609  0.7500000000000000
  0.7500000000000000  0.7111785038019391  0.2500000000000000
  0.2500000000000000  0.2888214961980609  0.7500000000000000
  0.2500000000000000  0.7111785038019391  0.2500000000000000
  0.6271322541851418  0.6088580908790959  0.6454923657173950
  0.8728677458148582  0.3911419091209041  0.1454923657173950
  0.3728677458148582  0.6088580908790959  0.6454923657173950
  0.3728677458148582  0.3911419091209041  0.3545076342826050
  0.1271322541851418  0.3911419091209041  0.1454923657173950
  0.8728677458148582  0.6088580908790959  0.8545076342826050
  0.6271322541851418  0.3911419091209041  0.3545076342826050
  0.1271322541851418  0.6088580908790959  0.8545076342826050
  0.5000000000000000  0.3423368383171024  0.7735141316381302
  0.0000000000000000  0.6576631616828905  0.2735141316381302
  0.5000000000000000  0.6576631616828905  0.2264858683618698
  0.0000000000000000  0.3423368383171024  0.7264858683618698
  0.8164427558039620  0.0000000000000000  0.5000000000000000
  0.6835572441960380  0.0000000000000000  0.0000000000000000
  0.1835572441960380  0.0000000000000000  0.5000000000000000
  0.3164427558039620  0.0000000000000000  0.0000000000000000
 
  0.00000000E+00  0.00000000E+00  0.00000000E+00
  0.00000000E+00  0.00000000E+00  0.00000000E+00
  0.00000000E+00  0.00000000E+00  0.00000000E+00
  0.00000000E+00  0.00000000E+00  0.00000000E+00
  0.00000000E+00  0.00000000E+00  0.00000000E+00
  0.00000000E+00  0.00000000E+00  0.00000000E+00
  0.00000000E+00  0.00000000E+00  0.00000000E+00
  0.00000000E+00  0.00000000E+00  0.00000000E+00
  0.00000000E+00  0.00000000E+00  0.00000000E+00
  0.00000000E+00  0.00000000E+00  0.00000000E+00
  0.00000000E+00  0.00000000E+00  0.00000000E+00
  0.00000000E+00  0.00000000E+00  0.00000000E+00
  0.00000000E+00  0.00000000E+00  0.00000000E+00
  0.00000000E+00  0.00000000E+00  0.00000000E+00
  0.00000000E+00  0.00000000E+00  0.00000000E+00
  0.00000000E+00  0.00000000E+00  0.00000000E+00
  0.00000000E+00  0.00000000E+00  0.00000000E+00
  0.00000000E+00  0.00000000E+00  0.00000000E+00
  0.00000000E+00  0.00000000E+00  0.00000000E+00
  0.00000000E+00  0.00000000E+00  0.00000000E+00
