Pb K Cd                                  10041
   1.00000000000000     
     6.4600347946746917    0.0000000000000000    0.0000000000000000
     0.0000000000000000    4.2450724647272597    5.4837739248072079
     0.0000000000000000   -4.2450724647272597    5.4837739248072079
   Pb   K    Cd
     2     4     2
Direct
  0.7500000000000000  0.2285880020920246  0.7793477342723705
  0.2500000000000000  0.7793477342723705  0.2285880020920246
  0.7500000000000000  0.6794970617383456  0.9771162839977308
  0.2500000000000000  0.9771162839977308  0.6794970617383456
  0.7500000000000000  0.0383463426554229  0.3243491757345680
  0.2500000000000000  0.3243491757345680  0.0383463426554229
  0.0000000000000000  0.5068776997547673  0.5068776997547673
  0.5000000000000000  0.5068776997547673  0.5068776997547673
 
  0.00000000E+00  0.00000000E+00  0.00000000E+00
  0.00000000E+00  0.00000000E+00  0.00000000E+00
  0.00000000E+00  0.00000000E+00  0.00000000E+00
  0.00000000E+00  0.00000000E+00  0.00000000E+00
  0.00000000E+00  0.00000000E+00  0.00000000E+00
  0.00000000E+00  0.00000000E+00  0.00000000E+00
  0.00000000E+00  0.00000000E+00  0.00000000E+00
  0.00000000E+00  0.00000000E+00  0.00000000E+00
