Se Br                                    10039
   1.00000000000000     
    10.2186775064159470    0.0000000000000000    0.0000000000000000
    -5.1093387532079735    8.8496343136368303    0.0000000000000000
     0.0000000000000000    0.0000000000000000   29.6892953330720779
   Se   Br
    16    64
Direct
  0.3626992026528129  0.4350992839701817  0.1038941625013905
  0.4350992839701817  0.3626992026528129  0.6038941625013905
  0.6373007973471871  0.0724000813173902  0.6038941625013905
  0.9275999186826098  0.5649007160298183  0.6038941625013905
  0.5649007160298183  0.9275999186826098  0.1038941625013905
  0.0724000813173902  0.6373007973471871  0.1038941625013905
  0.3333333333333357  0.6666666666666643  0.2206010374831067
  0.6666666666666643  0.3333333333333357  0.7206010374831067
  0.0436531541914462  0.2664977557868227  0.4150809785620737
  0.2664977557868227  0.0436531541914462  0.9150809785620737
  0.9563468458085538  0.2228446015953907  0.9150809785620737
  0.7771553984046093  0.7335022442131773  0.9150809785620737
  0.7335022442131773  0.7771553984046093  0.4150809785620737
  0.2228446015953907  0.9563468458085538  0.4150809785620737
  0.0000000000000000  0.0000000000000000  0.2973680154548148
  0.0000000000000000  0.0000000000000000  0.7973680154548148
  0.5736319557716598  0.4843635848807182  0.0572206699399871
  0.4843635848807182  0.5736319557716598  0.5572206699399871
  0.4263680442283402  0.9107316291090513  0.5572206699399871
  0.0892683708909487  0.5156364151192818  0.5572206699399871
  0.5156364151192818  0.0892683708909487  0.0572206699399871
  0.9107316291090513  0.4263680442283402  0.0572206699399871
  0.1723739001412028  0.2419317667910974  0.0588379885820203
  0.2419317667910974  0.1723739001412028  0.5588379885820203
  0.8276260998587972  0.0695578666498946  0.5588379885820203
  0.9304421333501054  0.7580682332089026  0.5588379885820203
  0.7580682332089026  0.9304421333501054  0.0588379885820203
  0.0695578666498946  0.8276260998587972  0.0588379885820203
  0.3838301571612206  0.2703537109455496  0.1563500915830716
  0.2703537109455496  0.3838301571612206  0.6563500915830716
  0.6161698428387794  0.8865235537843290  0.6563500915830716
  0.1134764462156781  0.7296462890544504  0.6563500915830716
  0.7296462890544504  0.1134764462156781  0.1563500915830716
  0.8865235537843290  0.6161698428387794  0.1563500915830716
  0.1364153279522640  0.4403358928880508  0.1596190942452864
  0.4403358928880508  0.1364153279522640  0.6596190942452864
  0.8635846720477360  0.3039205649357868  0.6596190942452864
  0.6960794350642132  0.5596641071119492  0.6596190942452864
  0.5596641071119492  0.6960794350642132  0.1596190942452864
  0.3039205649357868  0.8635846720477360  0.1596190942452864
  0.3879088558445005  0.4966918794218813  0.2622491470481023
  0.4966918794218813  0.3879088558445005  0.7622491470481023
  0.6120911441554995  0.1087830235773808  0.7622491470481023
  0.8912169764226192  0.5033081205781187  0.7622491470481023
  0.5033081205781187  0.8912169764226192  0.2622491470481023
  0.1087830235773808  0.6120911441554995  0.2622491470481023
  0.2521151803464718  0.4205006963645559  0.4636862666067501
  0.4205006963645559  0.2521151803464718  0.9636862666067501
  0.7478848196535282  0.1683855160180912  0.9636862666067501
  0.8316144839819088  0.5794993036354441  0.9636862666067501
  0.5794993036354441  0.8316144839819088  0.4636862666067501
  0.1683855160180912  0.7478848196535282  0.4636862666067501
  0.8541142846247709  0.2868493651878907  0.4563443060828973
  0.2868493651878907  0.8541142846247709  0.9563443060828973
  0.1458857153752291  0.4327350805631269  0.9563443060828973
  0.5672649194368731  0.7131506348121093  0.9563443060828973
  0.7131506348121093  0.5672649194368731  0.4563443060828973
  0.4327350805631269  0.1458857153752291  0.4563443060828973
  0.0877935045698521  0.4525918210094204  0.3598093446448374
  0.4525918210094204  0.0877935045698521  0.8598093446448374
  0.9122064954301479  0.3647983164395541  0.8598093446448374
  0.6352016835604459  0.5474081789905796  0.8598093446448374
  0.5474081789905796  0.6352016835604459  0.3598093446448374
  0.3647983164395541  0.9122064954301479  0.3598093446448374
  0.8055572532397619  0.0349301704290639  0.3603198352425636
  0.0349301704290639  0.8055572532397619  0.8603198352425636
  0.1944427467602381  0.2293729171893020  0.8603198352425636
  0.7706270828106980  0.9650698295709361  0.8603198352425636
  0.9650698295709361  0.7706270828106980  0.3603198352425636
  0.2293729171893020  0.1944427467602381  0.3603198352425636
  0.9917909609077213  0.1963888320601015  0.2556239020854818
  0.1963888320601015  0.9917909609077213  0.7556239020854818
  0.0082090390922716  0.2045978711523802  0.7556239020854818
  0.7954021288476198  0.8036111679398985  0.7556239020854818
  0.8036111679398985  0.7954021288476198  0.2556239020854818
  0.2045978711523802  0.0082090390922716  0.2556239020854818
  0.0000000000000000  0.0000000000000000  0.4679639172319341
  0.0000000000000000  0.0000000000000000  0.9679639172319341
  0.3333333333333357  0.6666666666666643  0.0540596684568300
  0.6666666666666643  0.3333333333333357  0.5540596684568300
 
  0.00000000E+00  0.00000000E+00  0.00000000E+00
  0.00000000E+00  0.00000000E+00  0.00000000E+00
  0.00000000E+00  0.00000000E+00  0.00000000E+00
  0.00000000E+00  0.00000000E+00  0.00000000E+00
  0.00000000E+00  0.00000000E+00  0.00000000E+00
  0.00000000E+00  0.00000000E+00  0.00000000E+00
  0.00000000E+00  0.00000000E+00  0.00000000E+00
  0.00000000E+00  0.00000000E+00  0.00000000E+00
  0.00000000E+00  0.00000000E+00  0.00000000E+00
  0.00000000E+00  0.00000000E+00  0.00000000E+00
  0.00000000E+00  0.00000000E+00  0.00000000E+00
  0.00000000E+00  0.00000000E+00  0.00000000E+00
  0.00000000E+00  0.00000000E+00  0.00000000E+00
  0.00000000E+00  0.00000000E+00  0.00000000E+00
  0.00000000E+00  0.00000000E+00  0.00000000E+00
  0.00000000E+00  0.00000000E+00  0.00000000E+00
  0.00000000E+00  0.00000000E+00  0.00000000E+00
  0.00000000E+00  0.00000000E+00  0.00000000E+00
  0.00000000E+00  0.00000000E+00  0.00000000E+00
  0.00000000E+00  0.00000000E+00  0.00000000E+00
  0.00000000E+00  0.00000000E+00  0.00000000E+00
  0.00000000E+00  0.00000000E+00  0.00000000E+00
  0.00000000E+00  0.00000000E+00  0.00000000E+00
  0.00000000E+00  0.00000000E+00  0.00000000E+00
  0.00000000E+00  0.00000000E+00  0.00000000E+00
  0.00000000E+00  0.00000000E+00  0.00000000E+00
  0.00000000E+00  0.00000000E+00  0.00000000E+00
  0.00000000E+00  0.00000000E+00  0.00000000E+00
  0.00000000E+00  0.00000000E+00  0.00000000E+00
  0.00000000E+00  0.00000000E+00  0.00000000E+00
  0.00000000E+00  0.00000000E+00  0.00000000E+00
  0.00000000E+00  0.00000000E+00  0.00000000E+00
  0.00000000E+00  0.00000000E+00  0.00000000E+00
  0.00000000E+00  0.00000000E+00  0.00000000E+00
  0.00000000E+00  0.00000000E+00  0.00000000E+00
  0.00000000E+00  0.00000000E+00  0.00000000E+00
  0.00000000E+00  0.00000000E+00  0.00000000E+00
  0.00000000E+00  0.00000000E+00  0.00000000E+00
  0.00000000E+00  0.00000000E+00  0.00000000E+00
  0.00000000E+00  0.00000000E+00  0.00000000E+00
  0.00000000E+00  0.00000000E+00  0.00000000E+00
  0.00000000E+00  0.00000000E+00  0.00000000E+00
  0.00000000E+00  0.00000000E+00  0.00000000E+00
  0.00000000E+00  0.00000000E+00  0.00000000E+00
  0.00000000E+00  0.00000000E+00  0.00000000E+00
  0.00000000E+00  0.00000000E+00  0.00000000E+00
  0.00000000E+00  0.00000000E+00  0.00000000E+00
  0.00000000E+00  0.00000000E+00  0.00000000E+00
  0.00000000E+00  0.00000000E+00  0.00000000E+00
  0.00000000E+00  0.00000000E+00  0.00000000E+00
  0.00000000E+00  0.00000000E+00  0.00000000E+00
  0.00000000E+00  0.00000000E+00  0.00000000E+00
  0.00000000E+00  0.00000000E+00  0.00000000E+00
  0.00000000E+00  0.00000000E+00  0.00000000E+00
  0.00000000E+00  0.00000000E+00  0.00000000E+00
  0.00000000E+00  0.00000000E+00  0.00000000E+00
  0.00000000E+00  0.00000000E+00  0.00000000E+00
  0.00000000E+00  0.00000000E+00  0.00000000E+00
  0.00000000E+00  0.00000000E+00  0.00000000E+00
  0.00000000E+00  0.00000000E+00  0.00000000E+00
  0.00000000E+00  0.00000000E+00  0.00000000E+00
  0.00000000E+00  0.00000000E+00  0.00000000E+00
  0.00000000E+00  0.00000000E+00  0.00000000E+00
  0.00000000E+00  0.00000000E+00  0.00000000E+00
  0.00000000E+00  0.00000000E+00  0.00000000E+00
  0.00000000E+00  0.00000000E+00  0.00000000E+00
  0.00000000E+00  0.00000000E+00  0.00000000E+00
  0.00000000E+00  0.00000000E+00  0.00000000E+00
  0.00000000E+00  0.00000000E+00  0.00000000E+00
  0.00000000E+00  0.00000000E+00  0.00000000E+00
  0.00000000E+00  0.00000000E+00  0.00000000E+00
  0.00000000E+00  0.00000000E+00  0.00000000E+00
  0.00000000E+00  0.00000000E+00  0.00000000E+00
  0.00000000E+00  0.00000000E+00  0.00000000E+00
  0.00000000E+00  0.00000000E+00  0.00000000E+00
  0.00000000E+00  0.00000000E+00  0.00000000E+00
  0.00000000E+00  0.00000000E+00  0.00000000E+00
  0.00000000E+00  0.00000000E+00  0.00000000E+00
  0.00000000E+00  0.00000000E+00  0.00000000E+00
  0.00000000E+00  0.00000000E+00  0.00000000E+00
