S Hg Sn Ba                               10456
   1.00000000000000     
    10.7974216793357325    0.0000000000000000    0.0000000000000000
     0.0000000000000000   10.8401154530129400    0.0000000000000000
     0.0000000000000000    0.0000000000000000    6.6084063128898993
   S    Hg   Sn   Ba
    16     4     4     4
Direct
  0.0945659647531158  0.2488028664182735  0.8426436530561716
  0.9054340352468913  0.7511971335817265  0.8426436530561716
  0.5945659647531087  0.2511971335817265  0.3426436530561716
  0.4054340352468842  0.7488028664182735  0.3426436530561716
  0.2661345038850413  0.4199010694085956  0.2673722660530231
  0.7338654961149587  0.5800989305914044  0.2673722660530231
  0.7661345038850413  0.0800989305914044  0.7673722660530231
  0.2338654961149587  0.9199010694085956  0.7673722660530231
  0.2648308710213954  0.0763942546628584  0.2689452777115804
  0.7351691289786046  0.9236057453371416  0.2689452777115804
  0.7648308710213954  0.4236057453371416  0.7689452777115804
  0.2351691289786046  0.5763942546628584  0.7689452777115804
  0.4491167120676920  0.2494057980479170  0.7944728729569164
  0.5508832879323080  0.7505942019520830  0.7944728729569164
  0.9491167120676920  0.2505942019520830  0.2944728729569164
  0.0508832879323080  0.7494057980479170  0.2944728729569164
  0.1725297544350610  0.2509789266478606  0.4981777881444245
  0.8274702455649390  0.7490210733521394  0.4981777881444245
  0.6725297544350610  0.2490210733521394  0.9981777881444245
  0.3274702455649390  0.7509789266478606  0.9981777881444245
  0.2878020778627430  0.2474184084803994  0.0365767064770424
  0.7121979221372641  0.7525815915196006  0.0365767064770424
  0.7878020778627359  0.2525815915196006  0.5365767064770424
  0.2121979221372570  0.7474184084803994  0.5365767064770424
  0.0000000000000000  0.0000000000000000  0.0514718898320936
  0.5000000000000000  0.5000000000000000  0.5514718898320936
  0.0000000000000000  0.5000000000000000  0.0513509813694739
  0.5000000000000000  0.0000000000000000  0.5513509813694739
 
  0.00000000E+00  0.00000000E+00  0.00000000E+00
  0.00000000E+00  0.00000000E+00  0.00000000E+00
  0.00000000E+00  0.00000000E+00  0.00000000E+00
  0.00000000E+00  0.00000000E+00  0.00000000E+00
  0.00000000E+00  0.00000000E+00  0.00000000E+00
  0.00000000E+00  0.00000000E+00  0.00000000E+00
  0.00000000E+00  0.00000000E+00  0.00000000E+00
  0.00000000E+00  0.00000000E+00  0.00000000E+00
  0.00000000E+00  0.00000000E+00  0.00000000E+00
  0.00000000E+00  0.00000000E+00  0.00000000E+00
  0.00000000E+00  0.00000000E+00  0.00000000E+00
  0.00000000E+00  0.00000000E+00  0.00000000E+00
  0.00000000E+00  0.00000000E+00  0.00000000E+00
  0.00000000E+00  0.00000000E+00  0.00000000E+00
  0.00000000E+00  0.00000000E+00  0.00000000E+00
  0.00000000E+00  0.00000000E+00  0.00000000E+00
  0.00000000E+00  0.00000000E+00  0.00000000E+00
  0.00000000E+00  0.00000000E+00  0.00000000E+00
  0.00000000E+00  0.00000000E+00  0.00000000E+00
  0.00000000E+00  0.00000000E+00  0.00000000E+00
  0.00000000E+00  0.00000000E+00  0.00000000E+00
  0.00000000E+00  0.00000000E+00  0.00000000E+00
  0.00000000E+00  0.00000000E+00  0.00000000E+00
  0.00000000E+00  0.00000000E+00  0.00000000E+00
  0.00000000E+00  0.00000000E+00  0.00000000E+00
  0.00000000E+00  0.00000000E+00  0.00000000E+00
  0.00000000E+00  0.00000000E+00  0.00000000E+00
  0.00000000E+00  0.00000000E+00  0.00000000E+00
