Nb Se Cl                                 10066
   1.00000000000000     
     7.7495109543648653    0.0000000000000000   -0.1101164831863146
     0.0000000000000000   12.6780540571679765    0.0000000000000000
    -2.4123487036155669    0.0000000000000000    7.7759091327780192
   Nb   Se   Cl
     6    10    14
Direct
  0.9756600463008809  0.3902549983095014  0.4394093915433643
  0.0243399536991191  0.6097450016904915  0.5605906084566428
  0.0243399536991191  0.8902549983095014  0.5605906084566428
  0.9756600463008809  0.1097450016904986  0.4394093915433643
  0.5977203060573331  0.2500000000000000  0.0151257369165023
  0.4022796939426669  0.7500000000000000  0.9848742630834977
  0.8124751005385917  0.4737118455305236  0.6510257589609552
  0.1875248994614083  0.5262881544694764  0.3489742410390519
  0.1875248994614083  0.9737118455305236  0.3489742410390519
  0.8124751005385917  0.0262881544694764  0.6510257589609552
  0.7114003361757781  0.5315764420275073  0.3669306619572410
  0.2885996638242219  0.4684235579724927  0.6330693380427590
  0.2885996638242219  0.0315764420275073  0.6330693380427590
  0.7114003361757781  0.9684235579724927  0.3669306619572410
  0.5698826070453009  0.2500000000000000  0.7256439895158593
  0.4301173929546991  0.7500000000000000  0.2743560104841407
  0.0526977206042361  0.2500000000000000  0.6821432948229784
  0.9473022793957639  0.7500000000000000  0.3178567051770216
  0.1702508457608545  0.2500000000000000  0.3533064562202028
  0.8297491542391455  0.7500000000000000  0.6466935437797972
  0.7099086407078303  0.2500000000000000  0.3669285387214600
  0.2900913592921697  0.7500000000000000  0.6330714612785400
  0.8500660041285926  0.3834196505994072  0.0975108141262595
  0.1499339958714074  0.6165803494005928  0.9024891858737405
  0.1499339958714074  0.8834196505994072  0.9024891858737405
  0.8500660041285926  0.1165803494005928  0.0975108141262595
  0.3932179517608461  0.3834453032282781  0.0311421326636960
  0.6067820482391539  0.6165546967717219  0.9688578673363040
  0.6067820482391539  0.8834453032282781  0.9688578673363040
  0.3932179517608461  0.1165546967717219  0.0311421326636960
 
  0.00000000E+00  0.00000000E+00  0.00000000E+00
  0.00000000E+00  0.00000000E+00  0.00000000E+00
  0.00000000E+00  0.00000000E+00  0.00000000E+00
  0.00000000E+00  0.00000000E+00  0.00000000E+00
  0.00000000E+00  0.00000000E+00  0.00000000E+00
  0.00000000E+00  0.00000000E+00  0.00000000E+00
  0.00000000E+00  0.00000000E+00  0.00000000E+00
  0.00000000E+00  0.00000000E+00  0.00000000E+00
  0.00000000E+00  0.00000000E+00  0.00000000E+00
  0.00000000E+00  0.00000000E+00  0.00000000E+00
  0.00000000E+00  0.00000000E+00  0.00000000E+00
  0.00000000E+00  0.00000000E+00  0.00000000E+00
  0.00000000E+00  0.00000000E+00  0.00000000E+00
  0.00000000E+00  0.00000000E+00  0.00000000E+00
  0.00000000E+00  0.00000000E+00  0.00000000E+00
  0.00000000E+00  0.00000000E+00  0.00000000E+00
  0.00000000E+00  0.00000000E+00  0.00000000E+00
  0.00000000E+00  0.00000000E+00  0.00000000E+00
  0.00000000E+00  0.00000000E+00  0.00000000E+00
  0.00000000E+00  0.00000000E+00  0.00000000E+00
  0.00000000E+00  0.00000000E+00  0.00000000E+00
  0.00000000E+00  0.00000000E+00  0.00000000E+00
  0.00000000E+00  0.00000000E+00  0.00000000E+00
  0.00000000E+00  0.00000000E+00  0.00000000E+00
  0.00000000E+00  0.00000000E+00  0.00000000E+00
  0.00000000E+00  0.00000000E+00  0.00000000E+00
  0.00000000E+00  0.00000000E+00  0.00000000E+00
  0.00000000E+00  0.00000000E+00  0.00000000E+00
  0.00000000E+00  0.00000000E+00  0.00000000E+00
  0.00000000E+00  0.00000000E+00  0.00000000E+00
