Si O                                     170535
   1.00000000000000     
     8.7398414965544173    0.0000000000000000    0.0000000000000000
     0.0000000000000000    9.7949701755050071    0.0000000000000000
     0.0000000000000000    0.0000000000000000    3.8353797044494158
   Si   O 
     8    16
Direct
  0.1733888050821051  0.1081085122196299  0.8452066654385817
  0.6733888050821051  0.6081085122196299  0.1547933345614183
  0.8266111949178949  0.1081085122196299  0.1547933345614183
  0.3266111949178949  0.3918914877803701  0.1547933345614183
  0.8266111949178949  0.8918914877803701  0.8452066654385817
  0.1733888050821051  0.8918914877803701  0.1547933345614183
  0.6733888050821051  0.3918914877803701  0.8452066654385817
  0.3266111949178949  0.6081085122196299  0.8452066654385817
  0.3573664749207524  0.5000000000000000  0.5000000000000000
  0.8573664749207524  0.0000000000000000  0.5000000000000000
  0.6426335250792476  0.5000000000000000  0.5000000000000000
  0.1426335250792476  0.0000000000000000  0.5000000000000000
  0.2006260591059643  0.5000000000000000  0.0000000000000000
  0.7006260591059643  0.0000000000000000  0.0000000000000000
  0.7993739408940357  0.5000000000000000  0.0000000000000000
  0.2993739408940357  0.0000000000000000  0.0000000000000000
  0.5000000000000000  0.6360655067290821  0.0000000000000000
  0.0000000000000000  0.1360655067290821  0.0000000000000000
  0.0000000000000000  0.8639344932709179  0.0000000000000000
  0.5000000000000000  0.3639344932709179  0.0000000000000000
  0.2500000000000000  0.2500000000000000  0.0000000000000000
  0.7500000000000000  0.7500000000000000  0.0000000000000000
  0.7500000000000000  0.2500000000000000  0.0000000000000000
  0.2500000000000000  0.7500000000000000  0.0000000000000000
 
  0.00000000E+00  0.00000000E+00  0.00000000E+00
  0.00000000E+00  0.00000000E+00  0.00000000E+00
  0.00000000E+00  0.00000000E+00  0.00000000E+00
  0.00000000E+00  0.00000000E+00  0.00000000E+00
  0.00000000E+00  0.00000000E+00  0.00000000E+00
  0.00000000E+00  0.00000000E+00  0.00000000E+00
  0.00000000E+00  0.00000000E+00  0.00000000E+00
  0.00000000E+00  0.00000000E+00  0.00000000E+00
  0.00000000E+00  0.00000000E+00  0.00000000E+00
  0.00000000E+00  0.00000000E+00  0.00000000E+00
  0.00000000E+00  0.00000000E+00  0.00000000E+00
  0.00000000E+00  0.00000000E+00  0.00000000E+00
  0.00000000E+00  0.00000000E+00  0.00000000E+00
  0.00000000E+00  0.00000000E+00  0.00000000E+00
  0.00000000E+00  0.00000000E+00  0.00000000E+00
  0.00000000E+00  0.00000000E+00  0.00000000E+00
  0.00000000E+00  0.00000000E+00  0.00000000E+00
  0.00000000E+00  0.00000000E+00  0.00000000E+00
  0.00000000E+00  0.00000000E+00  0.00000000E+00
  0.00000000E+00  0.00000000E+00  0.00000000E+00
  0.00000000E+00  0.00000000E+00  0.00000000E+00
  0.00000000E+00  0.00000000E+00  0.00000000E+00
  0.00000000E+00  0.00000000E+00  0.00000000E+00
  0.00000000E+00  0.00000000E+00  0.00000000E+00
