Sb In                                    10022
   1.00000000000000     
     5.4953825799769209    0.0000000000000000    0.0000000000000000
     0.0000000000000000    6.0276633216957762    0.0000000000000000
     0.0000000000000000    0.0000000000000000    3.2412051506601647
   Sb   In
     2     2
Direct
  0.5000000000000000  0.0000000000000000  0.2392052597992489
  0.0000000000000000  0.5000000000000000  0.7607947402007511
  0.0000000000000000  0.0000000000000000  0.7050478399521438
  0.5000000000000000  0.5000000000000000  0.2949521600478491
 
  0.00000000E+00  0.00000000E+00  0.00000000E+00
  0.00000000E+00  0.00000000E+00  0.00000000E+00
  0.00000000E+00  0.00000000E+00  0.00000000E+00
  0.00000000E+00  0.00000000E+00  0.00000000E+00
