Se Zr Ti                                 104188
   1.00000000000000     
     6.0898559659159712    0.0000000000000000    0.0190206319675707
     0.0000000000000000    3.6624473038091776    0.0000000000000000
     0.0180946892266101    0.0000000000000000    6.3740618281127386
   Se   Zr   Ti
     4     1     1
Direct
  0.7473662529989866  0.5000000000000000  0.1558628286538379
  0.2526337470010134  0.5000000000000000  0.8441371713461621
  0.7384083660793834  0.0000000000000000  0.6816127227220079
  0.2615916339206166  0.0000000000000000  0.3183872772779921
  0.0000000000000000  0.5000000000000000  0.5000000000000000
  0.0000000000000000  0.0000000000000000  0.0000000000000000
 
  0.00000000E+00  0.00000000E+00  0.00000000E+00
  0.00000000E+00  0.00000000E+00  0.00000000E+00
  0.00000000E+00  0.00000000E+00  0.00000000E+00
  0.00000000E+00  0.00000000E+00  0.00000000E+00
  0.00000000E+00  0.00000000E+00  0.00000000E+00
  0.00000000E+00  0.00000000E+00  0.00000000E+00
