Pr Ga                                    103917
   1.00000000000000     
     7.9876906957065943    0.0000000000000000    0.0000000000000000
     0.0000000000000000    7.9876906957065943    0.0000000000000000
     0.0000000000000000    0.0000000000000000   13.5035983016646917
   Pr   Ga
    20    12
Direct
  0.0000000000000000  0.5000000000000000  0.2816700000770851
  0.5000000000000000  0.0000000000000000  0.2183299999229149
  0.0000000000000000  0.5000000000000000  0.7816700000770851
  0.5000000000000000  0.0000000000000000  0.7183299999229149
  0.1628031136977484  0.1832163679279475  0.1002688834247749
  0.8167836320720525  0.8371968863022516  0.3997311165752322
  0.1628031136977484  0.8167836320720525  0.6002688834247678
  0.3167834200011015  0.3371973014516527  0.6002689945552007
  0.6628026985483473  0.6832165799988985  0.8997310054447993
  0.1832163679279475  0.8371968863022516  0.8997311165752322
  0.6832165799988985  0.3371973014516527  0.1002689945552007
  0.6628026985483473  0.3167834200011015  0.3997310054447993
  0.3371973014516527  0.6832165799988985  0.3997310054447993
  0.1832163679279475  0.1628031136977484  0.3997311165752322
  0.8371968863022516  0.8167836320720525  0.1002688834247749
  0.6832165799988985  0.6628026985483473  0.6002689945552007
  0.8371968863022516  0.1832163679279475  0.6002688834247678
  0.8167836320720525  0.1628031136977484  0.8997311165752322
  0.3167834200011015  0.6628026985483473  0.1002689945552007
  0.3371973014516527  0.3167834200011015  0.8997310054447993
  0.0000000000000000  0.5000000000000000  0.0092838084226941
  0.5000000000000000  0.0000000000000000  0.4907161915773059
  0.0000000000000000  0.5000000000000000  0.5092838084226941
  0.5000000000000000  0.0000000000000000  0.9907161915773059
  0.3827343376477899  0.3827343376477899  0.2500000000000000
  0.6172656623522101  0.6172656623522101  0.2500000000000000
  0.3827343376477899  0.6172656623522101  0.7500000000000000
  0.1172654410288416  0.1172654410288416  0.7500000000000000
  0.8827345589711584  0.8827345589711584  0.7500000000000000
  0.8827345589711584  0.1172654410288416  0.2500000000000000
  0.1172654410288416  0.8827345589711584  0.2500000000000000
  0.6172656623522101  0.3827343376477899  0.7500000000000000
 
  0.00000000E+00  0.00000000E+00  0.00000000E+00
  0.00000000E+00  0.00000000E+00  0.00000000E+00
  0.00000000E+00  0.00000000E+00  0.00000000E+00
  0.00000000E+00  0.00000000E+00  0.00000000E+00
  0.00000000E+00  0.00000000E+00  0.00000000E+00
  0.00000000E+00  0.00000000E+00  0.00000000E+00
  0.00000000E+00  0.00000000E+00  0.00000000E+00
  0.00000000E+00  0.00000000E+00  0.00000000E+00
  0.00000000E+00  0.00000000E+00  0.00000000E+00
  0.00000000E+00  0.00000000E+00  0.00000000E+00
  0.00000000E+00  0.00000000E+00  0.00000000E+00
  0.00000000E+00  0.00000000E+00  0.00000000E+00
  0.00000000E+00  0.00000000E+00  0.00000000E+00
  0.00000000E+00  0.00000000E+00  0.00000000E+00
  0.00000000E+00  0.00000000E+00  0.00000000E+00
  0.00000000E+00  0.00000000E+00  0.00000000E+00
  0.00000000E+00  0.00000000E+00  0.00000000E+00
  0.00000000E+00  0.00000000E+00  0.00000000E+00
  0.00000000E+00  0.00000000E+00  0.00000000E+00
  0.00000000E+00  0.00000000E+00  0.00000000E+00
  0.00000000E+00  0.00000000E+00  0.00000000E+00
  0.00000000E+00  0.00000000E+00  0.00000000E+00
  0.00000000E+00  0.00000000E+00  0.00000000E+00
  0.00000000E+00  0.00000000E+00  0.00000000E+00
  0.00000000E+00  0.00000000E+00  0.00000000E+00
  0.00000000E+00  0.00000000E+00  0.00000000E+00
  0.00000000E+00  0.00000000E+00  0.00000000E+00
  0.00000000E+00  0.00000000E+00  0.00000000E+00
  0.00000000E+00  0.00000000E+00  0.00000000E+00
  0.00000000E+00  0.00000000E+00  0.00000000E+00
  0.00000000E+00  0.00000000E+00  0.00000000E+00
  0.00000000E+00  0.00000000E+00  0.00000000E+00
