H Ca Si O                                100074
   1.00000000000000     
     6.7812840783067045   -0.0085437513134245   -0.0140132944534308
    -0.5927547750910094    6.8938593371966919   -0.0029974844823690
    -3.0344992139112379   -1.2285941070378545    8.8774546291415906
   H    Ca   Si   O 
     4     6     6    20
Direct
  0.9194288306953240  0.5330681953959058  0.1276341158568783
  0.0805711693046760  0.4669318046040942  0.8723658841431217
  0.9711266025132730  0.5995913190662776  0.3504013790367395
  0.0288733974867270  0.4004086809337224  0.6495986209632605
  0.1818403738360033  0.2788770362570929  0.3432386397151816
  0.8181596261639967  0.7211229637429000  0.6567613602848184
  0.2442316579384283  0.0951518184917859  0.6804422515709447
  0.7557683420615717  0.9048481815082141  0.3195577484290553
  0.2661642746408504  0.8492546645359837  0.0089889754139989
  0.7338357253591496  0.1507453354640163  0.9910110245860011
  0.2760798808916576  0.3067670131620872  0.0476742572218853
  0.7239201191083424  0.6932329868379199  0.9523257427781147
  0.3278651083013955  0.6233022067799183  0.6612288780244739
  0.6721348916986045  0.3766977932200817  0.3387711219755261
  0.2695394209213759  0.8015152383705697  0.3751282613503406
  0.7304605790786241  0.1984847616294303  0.6248717386496594
  0.0900917745965302  0.1890913073067608  0.0887722347955702
  0.9099082254034698  0.8109086926932392  0.9112277652044298
  0.2076868036772339  0.5031219826802484  0.9664681874359857
  0.7923131963227661  0.4968780173197516  0.0335318125640143
  0.3685983076953718  0.1599508147136248  0.9471898233091665
  0.6314016923046282  0.8400491852863752  0.0528101766908335
  0.4466660943262255  0.4014328607728430  0.2140451504948473
  0.5533339056737745  0.5985671392271570  0.7859548495051527
  0.1964305207280077  0.7722377209081230  0.7260092889116265
  0.8035694792719852  0.2277622790918770  0.2739907110883735
  0.1989722652277166  0.4055628555389390  0.5914977470376002
  0.8010277347722834  0.5944371444610610  0.4085022529623998
  0.4156057412465088  0.7185569929012061  0.5321593144145282
  0.5843942587534912  0.2814430070987939  0.4678406855854718
  0.0860177509781153  0.6062099516075676  0.2943419188855003
  0.9139822490218847  0.3937900483924324  0.7056580811144997
  0.4022377327159177  0.8571302834548717  0.2695898548393743
  0.5977622672840823  0.1428697165451283  0.7304101451606257
  0.1475938211932473  0.9771051658836996  0.4204793872716905
  0.8524061788067527  0.0228948341163004  0.5795206127283095
 
  0.00000000E+00  0.00000000E+00  0.00000000E+00
  0.00000000E+00  0.00000000E+00  0.00000000E+00
  0.00000000E+00  0.00000000E+00  0.00000000E+00
  0.00000000E+00  0.00000000E+00  0.00000000E+00
  0.00000000E+00  0.00000000E+00  0.00000000E+00
  0.00000000E+00  0.00000000E+00  0.00000000E+00
  0.00000000E+00  0.00000000E+00  0.00000000E+00
  0.00000000E+00  0.00000000E+00  0.00000000E+00
  0.00000000E+00  0.00000000E+00  0.00000000E+00
  0.00000000E+00  0.00000000E+00  0.00000000E+00
  0.00000000E+00  0.00000000E+00  0.00000000E+00
  0.00000000E+00  0.00000000E+00  0.00000000E+00
  0.00000000E+00  0.00000000E+00  0.00000000E+00
  0.00000000E+00  0.00000000E+00  0.00000000E+00
  0.00000000E+00  0.00000000E+00  0.00000000E+00
  0.00000000E+00  0.00000000E+00  0.00000000E+00
  0.00000000E+00  0.00000000E+00  0.00000000E+00
  0.00000000E+00  0.00000000E+00  0.00000000E+00
  0.00000000E+00  0.00000000E+00  0.00000000E+00
  0.00000000E+00  0.00000000E+00  0.00000000E+00
  0.00000000E+00  0.00000000E+00  0.00000000E+00
  0.00000000E+00  0.00000000E+00  0.00000000E+00
  0.00000000E+00  0.00000000E+00  0.00000000E+00
  0.00000000E+00  0.00000000E+00  0.00000000E+00
  0.00000000E+00  0.00000000E+00  0.00000000E+00
  0.00000000E+00  0.00000000E+00  0.00000000E+00
  0.00000000E+00  0.00000000E+00  0.00000000E+00
  0.00000000E+00  0.00000000E+00  0.00000000E+00
  0.00000000E+00  0.00000000E+00  0.00000000E+00
  0.00000000E+00  0.00000000E+00  0.00000000E+00
  0.00000000E+00  0.00000000E+00  0.00000000E+00
  0.00000000E+00  0.00000000E+00  0.00000000E+00
  0.00000000E+00  0.00000000E+00  0.00000000E+00
  0.00000000E+00  0.00000000E+00  0.00000000E+00
  0.00000000E+00  0.00000000E+00  0.00000000E+00
  0.00000000E+00  0.00000000E+00  0.00000000E+00
