O Re Ba Br                               100571
   1.00000000000000     
    10.9794208656847907    0.0000000000000000    0.0000000000000000
    -5.4897104328423953    9.5084573885239649    0.0000000000000000
     0.0000000000000000    0.0000000000000000    7.8083899176918239
   O    Re   Ba   Br
    30     6    10     2
Direct
  0.0000000000000000  0.7024277060898498  0.8828098382187264
  0.0000000000000000  0.2975722939101502  0.3828098382187264
  0.7024277060898498  0.0000000000000000  0.8828098382187264
  0.7024277060898498  0.7024277060898498  0.3828098382187264
  0.2975722939101502  0.2975722939101502  0.8828098382187264
  0.2975722939101502  0.0000000000000000  0.3828098382187264
  0.8682839401961999  0.4201794573664372  0.7413112792957435
  0.8682839401961999  0.4481044828297627  0.2413112792957435
  0.1317160598038001  0.5798205426335628  0.2413112792957435
  0.5518955171702373  0.1317160598038001  0.7413112792957435
  0.5518955171702373  0.4201794573664372  0.2413112792957435
  0.4201794573664372  0.8682839401961999  0.7413112792957435
  0.5798205426335628  0.4481044828297627  0.7413112792957435
  0.4481044828297627  0.8682839401961999  0.2413112792957435
  0.5798205426335628  0.1317160598038001  0.2413112792957435
  0.4201794573664372  0.5518955171702373  0.2413112792957435
  0.1317160598038001  0.5518955171702373  0.7413112792957435
  0.4481044828297627  0.5798205426335628  0.7413112792957435
  0.8671541712215998  0.6100539039381658  0.5600907058581370
  0.8671541712215998  0.2571002672834268  0.0600907058581370
  0.1328458287784002  0.3899460960618342  0.0600907058581370
  0.7428997327165732  0.1328458287784002  0.5600907058581370
  0.7428997327165732  0.6100539039381658  0.0600907058581370
  0.6100539039381658  0.8671541712215998  0.5600907058581370
  0.3899460960618342  0.2571002672834268  0.5600907058581370
  0.2571002672834268  0.8671541712215998  0.0600907058581370
  0.3899460960618342  0.1328458287784002  0.0600907058581370
  0.6100539039381658  0.7428997327165732  0.0600907058581370
  0.1328458287784002  0.7428997327165732  0.5600907058581370
  0.2571002672834268  0.3899460960618342  0.5600907058581370
  0.0000000000000000  0.6078257139120993  0.7015514180262770
  0.0000000000000000  0.3921742860878936  0.2015514180262770
  0.6078257139120993  0.0000000000000000  0.7015514180262770
  0.6078257139120993  0.6078257139120993  0.2015514180262770
  0.3921742860878936  0.3921742860878936  0.7015514180262770
  0.3921742860878936  0.0000000000000000  0.2015514180262770
  0.6666666666666643  0.3333333333333357  0.9956468265569143
  0.6666666666666643  0.3333333333333357  0.4956468265569143
  0.3333333333333357  0.6666666666666643  0.4956468265569143
  0.3333333333333357  0.6666666666666643  0.9956468265569143
  0.0000000000000000  0.7336646570367975  0.2563118393965738
  0.0000000000000000  0.2663353429632025  0.7563118393965738
  0.7336646570367975  0.0000000000000000  0.2563118393965738
  0.7336646570367975  0.7336646570367975  0.7563118393965738
  0.2663353429632025  0.2663353429632025  0.2563118393965738
  0.2663353429632025  0.0000000000000000  0.7563118393965738
  0.0000000000000000  0.0000000000000000  0.0249751490381556
  0.0000000000000000  0.0000000000000000  0.5249751490381556
 
  0.00000000E+00  0.00000000E+00  0.00000000E+00
  0.00000000E+00  0.00000000E+00  0.00000000E+00
  0.00000000E+00  0.00000000E+00  0.00000000E+00
  0.00000000E+00  0.00000000E+00  0.00000000E+00
  0.00000000E+00  0.00000000E+00  0.00000000E+00
  0.00000000E+00  0.00000000E+00  0.00000000E+00
  0.00000000E+00  0.00000000E+00  0.00000000E+00
  0.00000000E+00  0.00000000E+00  0.00000000E+00
  0.00000000E+00  0.00000000E+00  0.00000000E+00
  0.00000000E+00  0.00000000E+00  0.00000000E+00
  0.00000000E+00  0.00000000E+00  0.00000000E+00
  0.00000000E+00  0.00000000E+00  0.00000000E+00
  0.00000000E+00  0.00000000E+00  0.00000000E+00
  0.00000000E+00  0.00000000E+00  0.00000000E+00
  0.00000000E+00  0.00000000E+00  0.00000000E+00
  0.00000000E+00  0.00000000E+00  0.00000000E+00
  0.00000000E+00  0.00000000E+00  0.00000000E+00
  0.00000000E+00  0.00000000E+00  0.00000000E+00
  0.00000000E+00  0.00000000E+00  0.00000000E+00
  0.00000000E+00  0.00000000E+00  0.00000000E+00
  0.00000000E+00  0.00000000E+00  0.00000000E+00
  0.00000000E+00  0.00000000E+00  0.00000000E+00
  0.00000000E+00  0.00000000E+00  0.00000000E+00
  0.00000000E+00  0.00000000E+00  0.00000000E+00
  0.00000000E+00  0.00000000E+00  0.00000000E+00
  0.00000000E+00  0.00000000E+00  0.00000000E+00
  0.00000000E+00  0.00000000E+00  0.00000000E+00
  0.00000000E+00  0.00000000E+00  0.00000000E+00
  0.00000000E+00  0.00000000E+00  0.00000000E+00
  0.00000000E+00  0.00000000E+00  0.00000000E+00
  0.00000000E+00  0.00000000E+00  0.00000000E+00
  0.00000000E+00  0.00000000E+00  0.00000000E+00
  0.00000000E+00  0.00000000E+00  0.00000000E+00
  0.00000000E+00  0.00000000E+00  0.00000000E+00
  0.00000000E+00  0.00000000E+00  0.00000000E+00
  0.00000000E+00  0.00000000E+00  0.00000000E+00
  0.00000000E+00  0.00000000E+00  0.00000000E+00
  0.00000000E+00  0.00000000E+00  0.00000000E+00
  0.00000000E+00  0.00000000E+00  0.00000000E+00
  0.00000000E+00  0.00000000E+00  0.00000000E+00
  0.00000000E+00  0.00000000E+00  0.00000000E+00
  0.00000000E+00  0.00000000E+00  0.00000000E+00
  0.00000000E+00  0.00000000E+00  0.00000000E+00
  0.00000000E+00  0.00000000E+00  0.00000000E+00
  0.00000000E+00  0.00000000E+00  0.00000000E+00
  0.00000000E+00  0.00000000E+00  0.00000000E+00
  0.00000000E+00  0.00000000E+00  0.00000000E+00
  0.00000000E+00  0.00000000E+00  0.00000000E+00
