Pb Rh                                    105609
   1.00000000000000     
     0.0000000000000000    4.8584574039785684   13.1147489536098778
     2.8402084131652257    0.0000000000000000   13.1147489536098778
     2.8402084131652257    4.8584574039785684    0.0000000000000000
   Pb   Rh
    10     8
Direct
  0.3355299328376660  0.6644700671623340  0.3355299328376660
  0.6644700671623340  0.3355299328376660  0.6644700671623340
  0.0877692993043979  0.0877692993043979  0.9122307006956021
  0.9122307006956021  0.9122307006956021  0.0877692993043979
  0.2145438466984544  0.2145438466984544  0.7854561533015456
  0.7854561533015456  0.7854561533015456  0.2145438466984544
  0.1663675969851397  0.5021510764986488  0.4978489235013512
  0.4978489235013512  0.8336324030148603  0.1663675969851397
  0.8336324030148603  0.4978489235013512  0.5021510764986488
  0.5021510764986488  0.1663675969851397  0.8336324030148603
  0.2500000000000000  0.2500000000000000  0.2500000000000000
  0.7500000000000000  0.7500000000000000  0.7500000000000000
  0.4160292050957466  0.4160292050957466  0.5839707949042534
  0.5839707949042534  0.5839707949042534  0.4160292050957466
  0.4183796185092703  0.4183796185092703  0.0816203814907297
  0.0816203814907297  0.0816203814907297  0.4183796185092703
  0.9183796185092703  0.9183796185092703  0.5816203814907297
  0.5816203814907297  0.5816203814907297  0.9183796185092703
 
  0.00000000E+00  0.00000000E+00  0.00000000E+00
  0.00000000E+00  0.00000000E+00  0.00000000E+00
  0.00000000E+00  0.00000000E+00  0.00000000E+00
  0.00000000E+00  0.00000000E+00  0.00000000E+00
  0.00000000E+00  0.00000000E+00  0.00000000E+00
  0.00000000E+00  0.00000000E+00  0.00000000E+00
  0.00000000E+00  0.00000000E+00  0.00000000E+00
  0.00000000E+00  0.00000000E+00  0.00000000E+00
  0.00000000E+00  0.00000000E+00  0.00000000E+00
  0.00000000E+00  0.00000000E+00  0.00000000E+00
  0.00000000E+00  0.00000000E+00  0.00000000E+00
  0.00000000E+00  0.00000000E+00  0.00000000E+00
  0.00000000E+00  0.00000000E+00  0.00000000E+00
  0.00000000E+00  0.00000000E+00  0.00000000E+00
  0.00000000E+00  0.00000000E+00  0.00000000E+00
  0.00000000E+00  0.00000000E+00  0.00000000E+00
  0.00000000E+00  0.00000000E+00  0.00000000E+00
  0.00000000E+00  0.00000000E+00  0.00000000E+00
