Be As Li                                 100004
   1.00000000000000     
     3.7099823835704977    0.0000000000000000    0.0000000000000000
     0.0000000000000000    3.7099823835704977    0.0000000000000000
     0.0000000000000000    0.0000000000000000    6.1870659171354765
   Be   As   Li
     2     2     2
Direct
  0.0000000000000000  0.0000000000000000  0.0000000000000000
  0.5000000000000000  0.5000000000000000  0.0000000000000000
  0.0000000000000000  0.5000000000000000  0.7750639551528735
  0.5000000000000000  0.0000000000000000  0.2249360448471265
  0.0000000000000000  0.5000000000000000  0.3486231296332534
  0.5000000000000000  0.0000000000000000  0.6513768703667466
 
  0.00000000E+00  0.00000000E+00  0.00000000E+00
  0.00000000E+00  0.00000000E+00  0.00000000E+00
  0.00000000E+00  0.00000000E+00  0.00000000E+00
  0.00000000E+00  0.00000000E+00  0.00000000E+00
  0.00000000E+00  0.00000000E+00  0.00000000E+00
  0.00000000E+00  0.00000000E+00  0.00000000E+00
