Mo S Br                                  100599
   1.00000000000000     
     4.7352523827105415    2.7338992711697796    3.4575481717715131
    -4.7352524115760604    2.7338992211732309    3.4575481717715131
     0.0000000288655210   -5.4677984923430110    3.4575481717715131
   Mo   S    Br
     6     6     2
Direct
  0.4096632737354824  0.5487340490016521  0.2197842545528772
  0.5487340490016521  0.2197842545528772  0.4096632737354824
  0.7802157454471228  0.5903367262645176  0.4512659509983479
  0.4512659509983479  0.7802157454471228  0.5903367262645176
  0.5903367262645176  0.4512659509983479  0.7802157454471228
  0.2197842545528772  0.4096632737354824  0.5487340490016521
  0.1313640705202133  0.7210832459164394  0.3740772942116024
  0.7210832459164394  0.3740772942116024  0.1313640705202133
  0.6259227057883976  0.8686359294797938  0.2789167540835606
  0.2789167540835606  0.6259227057883976  0.8686359294797938
  0.8686359294797938  0.2789167540835606  0.6259227057883976
  0.3740772942116024  0.1313640705202133  0.7210832459164394
  0.1892225919717632  0.1892225919717632  0.1892225919717632
  0.8107774080282368  0.8107774080282368  0.8107774080282368
 
  0.00000000E+00  0.00000000E+00  0.00000000E+00
  0.00000000E+00  0.00000000E+00  0.00000000E+00
  0.00000000E+00  0.00000000E+00  0.00000000E+00
  0.00000000E+00  0.00000000E+00  0.00000000E+00
  0.00000000E+00  0.00000000E+00  0.00000000E+00
  0.00000000E+00  0.00000000E+00  0.00000000E+00
  0.00000000E+00  0.00000000E+00  0.00000000E+00
  0.00000000E+00  0.00000000E+00  0.00000000E+00
  0.00000000E+00  0.00000000E+00  0.00000000E+00
  0.00000000E+00  0.00000000E+00  0.00000000E+00
  0.00000000E+00  0.00000000E+00  0.00000000E+00
  0.00000000E+00  0.00000000E+00  0.00000000E+00
  0.00000000E+00  0.00000000E+00  0.00000000E+00
  0.00000000E+00  0.00000000E+00  0.00000000E+00
