O Zr Ce                                  164739
   1.00000000000000     
     5.2700399330613861   -5.2461985964408688    0.0000000000000000
     5.2700399330613861    5.2461985964408688    0.0000000000000000
     0.0000000000000000    0.0000000000000000    5.2719530794434286
   O    Zr   Ce
    16     5     3
Direct
  0.7425977900333578  0.9910662745564736  0.2864553341796920
  0.4830495648977120  0.7494975198961740  0.2283957256093956
  0.5054722477729428  0.7677741385544437  0.7296144715863306
  0.7680941706770312  0.0171990653824068  0.7704368222641946
  0.2574022099666422  0.0089337254435264  0.2864553341796920
  0.0171990653824068  0.7680941706770312  0.2295631777358054
  0.9910662745564736  0.7425977900333578  0.7135446658203080
  0.2319058293229688  0.9828009346175932  0.7704368222641946
  0.7677741385544437  0.5054722477729428  0.2703855284136694
  0.5169504351022880  0.2505024801038260  0.2283957256093956
  0.4945277522270572  0.2322258614455563  0.7296144715863306
  0.7494975198961740  0.4830495648977120  0.7716042743906044
  0.2322258614455563  0.4945277522270572  0.2703855284136694
  0.9828009346175932  0.2319058293229688  0.2295631777358054
  0.0089337254435264  0.2574022099666422  0.7135446658203080
  0.2505024801038260  0.5169504351022880  0.7716042743906044
  0.5000000000000000  0.0000000000000000  0.4952973697203547
  0.2475388981717686  0.7524611018282314  0.0000000000000000
  0.0000000000000000  0.0000000000000000  0.5000000000000000
  0.7524611018282314  0.2475388981717686  0.0000000000000000
  0.0000000000000000  0.5000000000000000  0.5047026302796453
  0.7539661365864774  0.7539661365864774  0.0000000000000000
  0.5000000000000000  0.5000000000000000  0.5000000000000000
  0.2460338634135226  0.2460338634135226  0.0000000000000000
 
  0.00000000E+00  0.00000000E+00  0.00000000E+00
  0.00000000E+00  0.00000000E+00  0.00000000E+00
  0.00000000E+00  0.00000000E+00  0.00000000E+00
  0.00000000E+00  0.00000000E+00  0.00000000E+00
  0.00000000E+00  0.00000000E+00  0.00000000E+00
  0.00000000E+00  0.00000000E+00  0.00000000E+00
  0.00000000E+00  0.00000000E+00  0.00000000E+00
  0.00000000E+00  0.00000000E+00  0.00000000E+00
  0.00000000E+00  0.00000000E+00  0.00000000E+00
  0.00000000E+00  0.00000000E+00  0.00000000E+00
  0.00000000E+00  0.00000000E+00  0.00000000E+00
  0.00000000E+00  0.00000000E+00  0.00000000E+00
  0.00000000E+00  0.00000000E+00  0.00000000E+00
  0.00000000E+00  0.00000000E+00  0.00000000E+00
  0.00000000E+00  0.00000000E+00  0.00000000E+00
  0.00000000E+00  0.00000000E+00  0.00000000E+00
  0.00000000E+00  0.00000000E+00  0.00000000E+00
  0.00000000E+00  0.00000000E+00  0.00000000E+00
  0.00000000E+00  0.00000000E+00  0.00000000E+00
  0.00000000E+00  0.00000000E+00  0.00000000E+00
  0.00000000E+00  0.00000000E+00  0.00000000E+00
  0.00000000E+00  0.00000000E+00  0.00000000E+00
  0.00000000E+00  0.00000000E+00  0.00000000E+00
  0.00000000E+00  0.00000000E+00  0.00000000E+00
