P O Ga                                   155435
   1.00000000000000     
     4.9358988394411085    0.0000000000000000    0.0000000000000000
    -2.4679494197205543    4.2746137854661281    0.0000000000000000
     0.0000000000000000    0.0000000000000000   11.1268074874212974
   P    O    Ga
     3    12     3
Direct
  0.0000000000000000  0.4558253516632860  0.6666666666666643
  0.4558253516632860  0.0000000000000000  0.3333333333333357
  0.5441746483367140  0.5441746483367140  0.0000000000000000
  0.6762924394126344  0.0808650465743810  0.2243215032315007
  0.0808650465743810  0.6762924394126344  0.7756784967684993
  0.9191349534256190  0.5954273928382463  0.5576548365648293
  0.4045726071617537  0.3237075605873656  0.8909881698981650
  0.5954273928382463  0.9191349534256190  0.4423451634351707
  0.3237075605873656  0.4045726071617537  0.1090118301018350
  0.7238651758273207  0.1333304729451186  0.7024483880735772
  0.1333304729451186  0.7238651758273207  0.2975516119264228
  0.8666695270548814  0.5905347028822021  0.0357817214069058
  0.4094652971177979  0.2761348241726722  0.3691150547402415
  0.5905347028822021  0.8666695270548814  0.9642182785930942
  0.2761348241726722  0.4094652971177979  0.6308849452597585
  0.0000000000000000  0.4538639302119449  0.1666666666666643
  0.4538639302119449  0.0000000000000000  0.8333333333333357
  0.5461360697880551  0.5461360697880551  0.5000000000000000
 
  0.00000000E+00  0.00000000E+00  0.00000000E+00
  0.00000000E+00  0.00000000E+00  0.00000000E+00
  0.00000000E+00  0.00000000E+00  0.00000000E+00
  0.00000000E+00  0.00000000E+00  0.00000000E+00
  0.00000000E+00  0.00000000E+00  0.00000000E+00
  0.00000000E+00  0.00000000E+00  0.00000000E+00
  0.00000000E+00  0.00000000E+00  0.00000000E+00
  0.00000000E+00  0.00000000E+00  0.00000000E+00
  0.00000000E+00  0.00000000E+00  0.00000000E+00
  0.00000000E+00  0.00000000E+00  0.00000000E+00
  0.00000000E+00  0.00000000E+00  0.00000000E+00
  0.00000000E+00  0.00000000E+00  0.00000000E+00
  0.00000000E+00  0.00000000E+00  0.00000000E+00
  0.00000000E+00  0.00000000E+00  0.00000000E+00
  0.00000000E+00  0.00000000E+00  0.00000000E+00
  0.00000000E+00  0.00000000E+00  0.00000000E+00
  0.00000000E+00  0.00000000E+00  0.00000000E+00
  0.00000000E+00  0.00000000E+00  0.00000000E+00
