Pd F                                     100568
   1.00000000000000     
     5.2952475345185901    0.0000000000000000    0.0000000000000000
     0.0000000000000000    5.2952475345185901    0.0000000000000000
     0.0000000000000000    0.0000000000000000    5.2952475345185901
   Pd   F 
     4     8
Direct
  0.9999482907416422  0.9999482907416422  0.9999482907416422
  0.5000517092583578  0.0000517092583578  0.4999482907416422
  0.4999482907416422  0.5000517092583578  0.0000517092583578
  0.0000517092583578  0.4999482907416422  0.5000517092583578
  0.3454657012465674  0.3454657012465674  0.3454657012465674
  0.1545342987534326  0.6545342987534326  0.8454657012465674
  0.8454657012465674  0.1545342987534326  0.6545342987534326
  0.6545342987534326  0.8454657012465674  0.1545342987534326
  0.6576503600191188  0.6576503600191188  0.6576503600191188
  0.8423496399808812  0.3423496399808812  0.1576503600191188
  0.1576503600191188  0.8423496399808812  0.3423496399808812
  0.3423496399808812  0.1576503600191188  0.8423496399808812
 
  0.00000000E+00  0.00000000E+00  0.00000000E+00
  0.00000000E+00  0.00000000E+00  0.00000000E+00
  0.00000000E+00  0.00000000E+00  0.00000000E+00
  0.00000000E+00  0.00000000E+00  0.00000000E+00
  0.00000000E+00  0.00000000E+00  0.00000000E+00
  0.00000000E+00  0.00000000E+00  0.00000000E+00
  0.00000000E+00  0.00000000E+00  0.00000000E+00
  0.00000000E+00  0.00000000E+00  0.00000000E+00
  0.00000000E+00  0.00000000E+00  0.00000000E+00
  0.00000000E+00  0.00000000E+00  0.00000000E+00
  0.00000000E+00  0.00000000E+00  0.00000000E+00
  0.00000000E+00  0.00000000E+00  0.00000000E+00
