Zn Ga Pd                                 103911
   1.00000000000000     
     5.6623235824761959    3.2691440067729371    1.7139267536348382
    -5.6623235497331095    3.2691440634856290    1.7139267536348382
    -0.0000000327430880   -6.5382880702585640    1.7139267536348382
   Zn   Ga   Pd
     3     4     7
Direct
  0.6350556299314150  0.4552282299833195  0.8954407198848386
  0.8954407198848386  0.6350556299314150  0.4552282299833195
  0.4552282299833195  0.8954407198848386  0.6350556299314150
  0.9825513929362799  0.9825513929362799  0.9825513929362799
  0.3630721448307455  0.5331917761871949  0.1061028467731475
  0.1061028467731475  0.3630721448307384  0.5331917761871949
  0.5331917761871949  0.1061028467731475  0.3630721448307455
  0.4960324649008427  0.4960324649008427  0.4960324649008427
  0.3806058287161349  0.1325495003663377  0.9673309564541626
  0.9673309564541626  0.3806058287161349  0.1325495003663377
  0.1325495003663377  0.9673309564541626  0.3806058287161349
  0.6040149139057078  0.8589971430637675  0.0288264520661343
  0.0288264520661343  0.6040149139057078  0.8589971430637675
  0.8589971430637675  0.0288264520661414  0.6040149139057078
 
  0.00000000E+00  0.00000000E+00  0.00000000E+00
  0.00000000E+00  0.00000000E+00  0.00000000E+00
  0.00000000E+00  0.00000000E+00  0.00000000E+00
  0.00000000E+00  0.00000000E+00  0.00000000E+00
  0.00000000E+00  0.00000000E+00  0.00000000E+00
  0.00000000E+00  0.00000000E+00  0.00000000E+00
  0.00000000E+00  0.00000000E+00  0.00000000E+00
  0.00000000E+00  0.00000000E+00  0.00000000E+00
  0.00000000E+00  0.00000000E+00  0.00000000E+00
  0.00000000E+00  0.00000000E+00  0.00000000E+00
  0.00000000E+00  0.00000000E+00  0.00000000E+00
  0.00000000E+00  0.00000000E+00  0.00000000E+00
  0.00000000E+00  0.00000000E+00  0.00000000E+00
  0.00000000E+00  0.00000000E+00  0.00000000E+00
