Co K Au C N                              201056
   1.00000000000000     
     6.7809773038034304    0.0000000000000000    0.0000000000000000
    -3.3904886519017152    5.8724986075794812    0.0000000000000000
     0.0000000000000000    0.0000000000000000    7.7333455815933041
   Co   K    Au   C    N 
     1     1     3     6     6
Direct
  0.0000000000000000  0.0000000000000000  0.5000000000000000
  0.3333333333333357  0.6666666666666643  0.5000000000000000
  0.5069428754176286  0.0138857508352714  0.0000000000000000
  0.9861142491647286  0.4930571245823714  0.0000000000000000
  0.5069428754176286  0.4930571245823714  0.0000000000000000
  0.3473285487432705  0.0099064638878374  0.7866598234193489
  0.9900935361121626  0.3374220848554330  0.7866598234193489
  0.3473285487432705  0.3374220848554330  0.2133401765806511
  0.6625779151445670  0.0099064638878374  0.2133401765806511
  0.9900935361121626  0.6526714512567295  0.2133401765806511
  0.6625779151445670  0.6526714512567295  0.7866598234193489
  0.2467118798558161  0.0041645332719966  0.6618590724856830
  0.9958354667280034  0.2425473465838195  0.6618590724856830
  0.2467118798558161  0.2425473465838195  0.3381409275143170
  0.7574526534161805  0.0041645332719966  0.3381409275143170
  0.9958354667280034  0.7532881201441910  0.3381409275143170
  0.7574526534161805  0.7532881201441910  0.6618590724856830
 
  0.00000000E+00  0.00000000E+00  0.00000000E+00
  0.00000000E+00  0.00000000E+00  0.00000000E+00
  0.00000000E+00  0.00000000E+00  0.00000000E+00
  0.00000000E+00  0.00000000E+00  0.00000000E+00
  0.00000000E+00  0.00000000E+00  0.00000000E+00
  0.00000000E+00  0.00000000E+00  0.00000000E+00
  0.00000000E+00  0.00000000E+00  0.00000000E+00
  0.00000000E+00  0.00000000E+00  0.00000000E+00
  0.00000000E+00  0.00000000E+00  0.00000000E+00
  0.00000000E+00  0.00000000E+00  0.00000000E+00
  0.00000000E+00  0.00000000E+00  0.00000000E+00
  0.00000000E+00  0.00000000E+00  0.00000000E+00
  0.00000000E+00  0.00000000E+00  0.00000000E+00
  0.00000000E+00  0.00000000E+00  0.00000000E+00
  0.00000000E+00  0.00000000E+00  0.00000000E+00
  0.00000000E+00  0.00000000E+00  0.00000000E+00
  0.00000000E+00  0.00000000E+00  0.00000000E+00
