Si O                                     170550
   1.00000000000000     
     4.5666037582245131    0.0000000000000000    0.0000000000000000
     0.0000000000000000    4.5666037582245131    0.0000000000000000
     0.0000000000000000    0.0000000000000000   15.1525121146610129
   Si   O 
     8    16
Direct
  0.5787622350568569  0.0255942436563856  0.0973273633207299
  0.4212377649431431  0.9744057563436144  0.5973273633207299
  0.0255942436563856  0.4212377649431431  0.3473273633207299
  0.4212377649431431  0.0255942436563856  0.9026726366792701
  0.9744057563436144  0.5787622350568569  0.8473273633207299
  0.5787622350568569  0.9744057563436144  0.4026726366792701
  0.0255942436563856  0.5787622350568569  0.1526726366792701
  0.9744057563436144  0.4212377649431431  0.6526726366792701
  0.2732355668501967  0.2732355668501967  0.6250000000000000
  0.7267644331498033  0.7267644331498033  0.1250000000000000
  0.2732355668501967  0.7267644331498033  0.8750000000000000
  0.7267644331498033  0.2732355668501967  0.3750000000000000
  0.5000000000000000  0.1574445807292904  0.0000000000000000
  0.5000000000000000  0.8425554192707096  0.5000000000000000
  0.1574445807292904  0.5000000000000000  0.2500000000000000
  0.8425554192707096  0.5000000000000000  0.7500000000000000
  0.8473493138546502  0.2469963561733408  0.1337374309186146
  0.1526506861453498  0.7530036438266592  0.6337374309186146
  0.2469963561733408  0.1526506861453498  0.3837374309186146
  0.1526506861453498  0.2469963561733408  0.8662625690813854
  0.7530036438266592  0.8473493138546502  0.8837374309186146
  0.8473493138546502  0.7530036438266592  0.3662625690813854
  0.2469963561733408  0.8473493138546502  0.1162625690813854
  0.7530036438266592  0.1526506861453498  0.6162625690813854
 
  0.00000000E+00  0.00000000E+00  0.00000000E+00
  0.00000000E+00  0.00000000E+00  0.00000000E+00
  0.00000000E+00  0.00000000E+00  0.00000000E+00
  0.00000000E+00  0.00000000E+00  0.00000000E+00
  0.00000000E+00  0.00000000E+00  0.00000000E+00
  0.00000000E+00  0.00000000E+00  0.00000000E+00
  0.00000000E+00  0.00000000E+00  0.00000000E+00
  0.00000000E+00  0.00000000E+00  0.00000000E+00
  0.00000000E+00  0.00000000E+00  0.00000000E+00
  0.00000000E+00  0.00000000E+00  0.00000000E+00
  0.00000000E+00  0.00000000E+00  0.00000000E+00
  0.00000000E+00  0.00000000E+00  0.00000000E+00
  0.00000000E+00  0.00000000E+00  0.00000000E+00
  0.00000000E+00  0.00000000E+00  0.00000000E+00
  0.00000000E+00  0.00000000E+00  0.00000000E+00
  0.00000000E+00  0.00000000E+00  0.00000000E+00
  0.00000000E+00  0.00000000E+00  0.00000000E+00
  0.00000000E+00  0.00000000E+00  0.00000000E+00
  0.00000000E+00  0.00000000E+00  0.00000000E+00
  0.00000000E+00  0.00000000E+00  0.00000000E+00
  0.00000000E+00  0.00000000E+00  0.00000000E+00
  0.00000000E+00  0.00000000E+00  0.00000000E+00
  0.00000000E+00  0.00000000E+00  0.00000000E+00
  0.00000000E+00  0.00000000E+00  0.00000000E+00
