Si O                                     170542
   1.00000000000000     
     7.3417358854494292    0.0000000000000000    0.0000000000000000
    -3.6708679427247146    6.3581297846750449    0.0000000000000000
     0.0000000000000000    0.0000000000000000    7.0412474108415166
   Si   O 
     6    12
Direct
  0.5337765893316444  0.7668882946658186  0.9166666666666643
  0.2331117053341814  0.4662234106683556  0.2500000000000000
  0.7668882946658186  0.2331117053341814  0.0833333333333357
  0.4662234106683556  0.2331117053341814  0.4166666666666643
  0.7668882946658186  0.5337765893316444  0.7500000000000000
  0.2331117053341814  0.7668882946658186  0.5833333333333357
  0.3877133369238450  0.7754266738476900  0.7500000000000000
  0.2245733261523100  0.6122866630761550  0.4166666666666643
  0.6122866630761550  0.2245733261523100  0.2500000000000000
  0.7754266738476900  0.3877133369238450  0.9166666666666643
  0.6122866630761550  0.3877133369238450  0.5833333333333357
  0.3877133369238450  0.6122866630761550  0.0833333333333357
  0.6828302163907196  0.6828302163907196  0.8333333333333357
  0.3171697836092804  0.3171697836092804  0.3333333333333357
  0.0000000000000000  0.3171697836092804  0.1666666666666643
  0.6828302163907196  0.0000000000000000  0.0000000000000000
  0.3171697836092804  0.0000000000000000  0.5000000000000000
  0.0000000000000000  0.6828302163907196  0.6666666666666643
 
  0.00000000E+00  0.00000000E+00  0.00000000E+00
  0.00000000E+00  0.00000000E+00  0.00000000E+00
  0.00000000E+00  0.00000000E+00  0.00000000E+00
  0.00000000E+00  0.00000000E+00  0.00000000E+00
  0.00000000E+00  0.00000000E+00  0.00000000E+00
  0.00000000E+00  0.00000000E+00  0.00000000E+00
  0.00000000E+00  0.00000000E+00  0.00000000E+00
  0.00000000E+00  0.00000000E+00  0.00000000E+00
  0.00000000E+00  0.00000000E+00  0.00000000E+00
  0.00000000E+00  0.00000000E+00  0.00000000E+00
  0.00000000E+00  0.00000000E+00  0.00000000E+00
  0.00000000E+00  0.00000000E+00  0.00000000E+00
  0.00000000E+00  0.00000000E+00  0.00000000E+00
  0.00000000E+00  0.00000000E+00  0.00000000E+00
  0.00000000E+00  0.00000000E+00  0.00000000E+00
  0.00000000E+00  0.00000000E+00  0.00000000E+00
  0.00000000E+00  0.00000000E+00  0.00000000E+00
  0.00000000E+00  0.00000000E+00  0.00000000E+00
