Si O                                     170506
   1.00000000000000     
    -5.3076116423473279    5.3076116423473279    5.3076116423473279
     5.3076116423473279   -5.3076116423473279    5.3076116423473279
     5.3076116423473279    5.3076116423473279   -5.3076116423473279
   Si   O 
    12    24
Direct
  0.1249330905716022  0.8750669094283978  0.5000000000000000
  0.2498661811432044  0.6249330905716022  0.1249330905716022
  0.5000000000000000  0.1249330905716022  0.8750669094283978
  0.8750669094283978  0.5000000000000000  0.1249330905716022
  0.5000000000000000  0.3750669094283978  0.6249330905716022
  0.1249330905716022  0.2498661811432044  0.6249330905716022
  0.3750669094283978  0.6249330905716022  0.5000000000000000
  0.3750669094283978  0.7501338188567956  0.8750669094283978
  0.6249330905716022  0.5000000000000000  0.3750669094283978
  0.8750669094283978  0.3750669094283978  0.7501338188567956
  0.7501338188567956  0.8750669094283978  0.3750669094283978
  0.6249330905716022  0.1249330905716022  0.2498661811432044
  0.3682833781691883  0.0000000000000000  0.6317166218308117
  0.3682833781691883  0.7365667563383909  0.3682833781691883
  0.6317166218308117  0.3682833781691883  0.0000000000000000
  0.6317166218308117  0.2634332436616091  0.6317166218308117
  0.0000000000000000  0.3682833781691883  0.6317166218308117
  0.2634332436616091  0.6317166218308117  0.6317166218308117
  0.3682833781691883  0.6317166218308117  0.0000000000000000
  0.7365667563383909  0.3682833781691883  0.3682833781691883
  0.0000000000000000  0.6317166218308117  0.3682833781691883
  0.6317166218308117  0.6317166218308117  0.2634332436616091
  0.6317166218308117  0.0000000000000000  0.3682833781691883
  0.3682833781691883  0.3682833781691883  0.7365667563383909
  0.1749543581970912  0.0874771790985562  0.5874771790985562
  0.0874771790985562  0.5874771790985562  0.1749543581970912
  0.5874771790985562  0.1749543581970912  0.0874771790985562
  0.8250456418029088  0.4125228209014438  0.9125228209014438
  0.5874771790985562  0.4125228209014438  0.5000000000000000
  0.9125228209014438  0.0874771790985562  0.5000000000000000
  0.5000000000000000  0.5874771790985562  0.4125228209014438
  0.4125228209014438  0.9125228209014438  0.8250456418029088
  0.0874771790985562  0.5000000000000000  0.9125228209014438
  0.5000000000000000  0.9125228209014438  0.0874771790985562
  0.9125228209014438  0.8250456418029088  0.4125228209014438
  0.4125228209014438  0.5000000000000000  0.5874771790985562
 
  0.00000000E+00  0.00000000E+00  0.00000000E+00
  0.00000000E+00  0.00000000E+00  0.00000000E+00
  0.00000000E+00  0.00000000E+00  0.00000000E+00
  0.00000000E+00  0.00000000E+00  0.00000000E+00
  0.00000000E+00  0.00000000E+00  0.00000000E+00
  0.00000000E+00  0.00000000E+00  0.00000000E+00
  0.00000000E+00  0.00000000E+00  0.00000000E+00
  0.00000000E+00  0.00000000E+00  0.00000000E+00
  0.00000000E+00  0.00000000E+00  0.00000000E+00
  0.00000000E+00  0.00000000E+00  0.00000000E+00
  0.00000000E+00  0.00000000E+00  0.00000000E+00
  0.00000000E+00  0.00000000E+00  0.00000000E+00
  0.00000000E+00  0.00000000E+00  0.00000000E+00
  0.00000000E+00  0.00000000E+00  0.00000000E+00
  0.00000000E+00  0.00000000E+00  0.00000000E+00
  0.00000000E+00  0.00000000E+00  0.00000000E+00
  0.00000000E+00  0.00000000E+00  0.00000000E+00
  0.00000000E+00  0.00000000E+00  0.00000000E+00
  0.00000000E+00  0.00000000E+00  0.00000000E+00
  0.00000000E+00  0.00000000E+00  0.00000000E+00
  0.00000000E+00  0.00000000E+00  0.00000000E+00
  0.00000000E+00  0.00000000E+00  0.00000000E+00
  0.00000000E+00  0.00000000E+00  0.00000000E+00
  0.00000000E+00  0.00000000E+00  0.00000000E+00
  0.00000000E+00  0.00000000E+00  0.00000000E+00
  0.00000000E+00  0.00000000E+00  0.00000000E+00
  0.00000000E+00  0.00000000E+00  0.00000000E+00
  0.00000000E+00  0.00000000E+00  0.00000000E+00
  0.00000000E+00  0.00000000E+00  0.00000000E+00
  0.00000000E+00  0.00000000E+00  0.00000000E+00
  0.00000000E+00  0.00000000E+00  0.00000000E+00
  0.00000000E+00  0.00000000E+00  0.00000000E+00
  0.00000000E+00  0.00000000E+00  0.00000000E+00
  0.00000000E+00  0.00000000E+00  0.00000000E+00
  0.00000000E+00  0.00000000E+00  0.00000000E+00
  0.00000000E+00  0.00000000E+00  0.00000000E+00
