Pb Ge O                                  100269
   1.00000000000000     
     5.2575027513034334    0.0000000000000000    0.0000000000000000
     0.0000000000000000   16.1866780710570346    0.0000000000000000
     0.0000000000000000    0.0000000000000000   14.2463172237138807
   Pb   Ge   O 
     8    24    56
Direct
  0.1304427482237926  0.3118589247716557  0.6528377385603008
  0.3695572517762074  0.8118589247716557  0.6528377385603008
  0.8695572517762074  0.6881410752283443  0.3471622614396992
  0.3695572517762074  0.6881410752283443  0.1528377385603008
  0.1304427482237926  0.1881410752283443  0.1528377385603008
  0.6304427482237926  0.1881410752283443  0.3471622614396992
  0.6304427482237926  0.3118589247716557  0.8471622614396992
  0.8695572517762074  0.8118589247716557  0.8471622614396992
  0.1598420231533026  0.1585973159833074  0.8643073033208495
  0.3401579768466974  0.6585973159833074  0.8643073033208495
  0.8401579768466974  0.8414026840166926  0.1356926966791505
  0.3401579768466974  0.8414026840166926  0.3643073033208495
  0.1598420231533026  0.3414026840166926  0.3643073033208495
  0.6598420231533026  0.3414026840166926  0.1356926966791505
  0.6598420231533026  0.1585973159833074  0.6356926966791505
  0.8401579768466974  0.6585973159833074  0.6356926966791505
  0.1388357641816427  0.0937847911250884  0.5319310821006127
  0.3611642358183644  0.5937847911250884  0.5319310821006127
  0.8611642358183644  0.9062152088749116  0.4680689178993873
  0.3611642358183644  0.9062152088749116  0.0319310821006127
  0.1388357641816427  0.4062152088749116  0.0319310821006127
  0.6388357641816356  0.4062152088749116  0.4680689178993873
  0.6388357641816356  0.0937847911250884  0.9680689178993873
  0.8611642358183644  0.5937847911250884  0.9680689178993873
  0.1501804450357511  0.4690562799212898  0.8233342806261987
  0.3498195549642489  0.9690562799212898  0.8233342806261987
  0.8498195549642489  0.5309437200787102  0.1766657193738013
  0.3498195549642489  0.5309437200787102  0.3233342806261987
  0.1501804450357511  0.0309437200787102  0.3233342806261987
  0.6501804450357511  0.0309437200787102  0.1766657193738013
  0.6501804450357511  0.4690562799212898  0.6766657193738013
  0.8498195549642489  0.9690562799212898  0.6766657193738013
  0.3366741451909405  0.1654875710297432  0.5966281930679074
  0.1633258548090595  0.6654875710297432  0.5966281930679074
  0.6633258548090524  0.8345124289702568  0.4033718069320926
  0.1633258548090595  0.8345124289702568  0.0966281930679074
  0.3366741451909405  0.3345124289702568  0.0966281930679074
  0.8366741451909476  0.3345124289702568  0.4033718069320926
  0.8366741451909476  0.1654875710297432  0.9033718069320926
  0.6633258548090524  0.6654875710297432  0.9033718069320926
  0.3511183190625857  0.1539459206392735  0.9703413411317143
  0.1488816809374143  0.6539459206392735  0.9703413411317143
  0.6488816809374143  0.8460540793607265  0.0296586588682715
  0.1488816809374143  0.8460540793607265  0.4703413411317285
  0.3511183190625857  0.3460540793607265  0.4703413411317285
  0.8511183190625857  0.3460540793607265  0.0296586588682715
  0.8511183190625857  0.1539459206392735  0.5296586588682857
  0.6488816809374143  0.6539459206392735  0.5296586588682857
  0.4174588587764276  0.4149875039872697  0.7490168227515497
  0.0825411412235724  0.9149875039872697  0.7490168227515497
  0.5825411412235724  0.5850124960127303  0.2509831772484503
  0.0825411412235724  0.5850124960127303  0.2490168227515497
  0.4174588587764276  0.0850124960127303  0.2490168227515497
  0.9174588587764276  0.0850124960127303  0.2509831772484503
  0.9174588587764276  0.4149875039872697  0.7509831772484503
  0.5825411412235724  0.9149875039872697  0.7509831772484503
  0.2107717593196128  0.0677919015277837  0.7963466270300685
  0.2892282406803872  0.5677919015277908  0.7963466270300685
  0.7892282406803872  0.9322080984722163  0.2036533729699315
  0.2892282406803872  0.9322080984722163  0.2963466270300685
  0.2107717593196128  0.4322080984722163  0.2963466270300685
  0.7107717593196128  0.4322080984722163  0.2036533729699315
  0.7107717593196128  0.0677919015277837  0.7036533729699315
  0.7892282406803872  0.5677919015277908  0.7036533729699315
  0.2948094596562782  0.4098499168594003  0.9206762083232363
  0.2051905403437218  0.9098499168594003  0.9206762083232363
  0.7051905403437218  0.5901500831405997  0.0793237916767637
  0.2051905403437218  0.5901500831405997  0.4206762083232363
  0.2948094596562782  0.0901500831405997  0.4206762083232363
  0.7948094596562782  0.0901500831405997  0.0793237916767637
  0.7948094596562782  0.4098499168594003  0.5793237916767637
  0.7051905403437218  0.9098499168594003  0.5793237916767637
  0.3867947774262532  0.4989451579394952  0.5921042748722911
  0.1132052225737468  0.9989451579394952  0.5921042748722911
  0.6132052225737468  0.5010548420605048  0.4078957251277089
  0.1132052225737468  0.5010548420605048  0.0921042748722911
  0.3867947774262532  0.0010548420605048  0.0921042748722911
  0.8867947774262532  0.0010548420605048  0.4078957251277089
  0.8867947774262532  0.4989451579394952  0.9078957251277089
  0.6132052225737468  0.9989451579394952  0.9078957251277089
  0.2317930693116637  0.2507212281358662  0.8055051167378338
  0.2682069306883363  0.7507212281358662  0.8055051167378338
  0.7682069306883363  0.7492787718641409  0.1944948832621662
  0.2682069306883363  0.7492787718641409  0.3055051167378338
  0.2317930693116637  0.2492787718641409  0.3055051167378338
  0.7317930693116637  0.2492787718641409  0.1944948832621662
  0.7317930693116637  0.2507212281358662  0.6944948832621662
  0.7682069306883363  0.7507212281358662  0.6944948832621662
 
  0.00000000E+00  0.00000000E+00  0.00000000E+00
  0.00000000E+00  0.00000000E+00  0.00000000E+00
  0.00000000E+00  0.00000000E+00  0.00000000E+00
  0.00000000E+00  0.00000000E+00  0.00000000E+00
  0.00000000E+00  0.00000000E+00  0.00000000E+00
  0.00000000E+00  0.00000000E+00  0.00000000E+00
  0.00000000E+00  0.00000000E+00  0.00000000E+00
  0.00000000E+00  0.00000000E+00  0.00000000E+00
  0.00000000E+00  0.00000000E+00  0.00000000E+00
  0.00000000E+00  0.00000000E+00  0.00000000E+00
  0.00000000E+00  0.00000000E+00  0.00000000E+00
  0.00000000E+00  0.00000000E+00  0.00000000E+00
  0.00000000E+00  0.00000000E+00  0.00000000E+00
  0.00000000E+00  0.00000000E+00  0.00000000E+00
  0.00000000E+00  0.00000000E+00  0.00000000E+00
  0.00000000E+00  0.00000000E+00  0.00000000E+00
  0.00000000E+00  0.00000000E+00  0.00000000E+00
  0.00000000E+00  0.00000000E+00  0.00000000E+00
  0.00000000E+00  0.00000000E+00  0.00000000E+00
  0.00000000E+00  0.00000000E+00  0.00000000E+00
  0.00000000E+00  0.00000000E+00  0.00000000E+00
  0.00000000E+00  0.00000000E+00  0.00000000E+00
  0.00000000E+00  0.00000000E+00  0.00000000E+00
  0.00000000E+00  0.00000000E+00  0.00000000E+00
  0.00000000E+00  0.00000000E+00  0.00000000E+00
  0.00000000E+00  0.00000000E+00  0.00000000E+00
  0.00000000E+00  0.00000000E+00  0.00000000E+00
  0.00000000E+00  0.00000000E+00  0.00000000E+00
  0.00000000E+00  0.00000000E+00  0.00000000E+00
  0.00000000E+00  0.00000000E+00  0.00000000E+00
  0.00000000E+00  0.00000000E+00  0.00000000E+00
  0.00000000E+00  0.00000000E+00  0.00000000E+00
  0.00000000E+00  0.00000000E+00  0.00000000E+00
  0.00000000E+00  0.00000000E+00  0.00000000E+00
  0.00000000E+00  0.00000000E+00  0.00000000E+00
  0.00000000E+00  0.00000000E+00  0.00000000E+00
  0.00000000E+00  0.00000000E+00  0.00000000E+00
  0.00000000E+00  0.00000000E+00  0.00000000E+00
  0.00000000E+00  0.00000000E+00  0.00000000E+00
  0.00000000E+00  0.00000000E+00  0.00000000E+00
  0.00000000E+00  0.00000000E+00  0.00000000E+00
  0.00000000E+00  0.00000000E+00  0.00000000E+00
  0.00000000E+00  0.00000000E+00  0.00000000E+00
  0.00000000E+00  0.00000000E+00  0.00000000E+00
  0.00000000E+00  0.00000000E+00  0.00000000E+00
  0.00000000E+00  0.00000000E+00  0.00000000E+00
  0.00000000E+00  0.00000000E+00  0.00000000E+00
  0.00000000E+00  0.00000000E+00  0.00000000E+00
  0.00000000E+00  0.00000000E+00  0.00000000E+00
  0.00000000E+00  0.00000000E+00  0.00000000E+00
  0.00000000E+00  0.00000000E+00  0.00000000E+00
  0.00000000E+00  0.00000000E+00  0.00000000E+00
  0.00000000E+00  0.00000000E+00  0.00000000E+00
  0.00000000E+00  0.00000000E+00  0.00000000E+00
  0.00000000E+00  0.00000000E+00  0.00000000E+00
  0.00000000E+00  0.00000000E+00  0.00000000E+00
  0.00000000E+00  0.00000000E+00  0.00000000E+00
  0.00000000E+00  0.00000000E+00  0.00000000E+00
  0.00000000E+00  0.00000000E+00  0.00000000E+00
  0.00000000E+00  0.00000000E+00  0.00000000E+00
  0.00000000E+00  0.00000000E+00  0.00000000E+00
  0.00000000E+00  0.00000000E+00  0.00000000E+00
  0.00000000E+00  0.00000000E+00  0.00000000E+00
  0.00000000E+00  0.00000000E+00  0.00000000E+00
  0.00000000E+00  0.00000000E+00  0.00000000E+00
  0.00000000E+00  0.00000000E+00  0.00000000E+00
  0.00000000E+00  0.00000000E+00  0.00000000E+00
  0.00000000E+00  0.00000000E+00  0.00000000E+00
  0.00000000E+00  0.00000000E+00  0.00000000E+00
  0.00000000E+00  0.00000000E+00  0.00000000E+00
  0.00000000E+00  0.00000000E+00  0.00000000E+00
  0.00000000E+00  0.00000000E+00  0.00000000E+00
  0.00000000E+00  0.00000000E+00  0.00000000E+00
  0.00000000E+00  0.00000000E+00  0.00000000E+00
  0.00000000E+00  0.00000000E+00  0.00000000E+00
  0.00000000E+00  0.00000000E+00  0.00000000E+00
  0.00000000E+00  0.00000000E+00  0.00000000E+00
  0.00000000E+00  0.00000000E+00  0.00000000E+00
  0.00000000E+00  0.00000000E+00  0.00000000E+00
  0.00000000E+00  0.00000000E+00  0.00000000E+00
  0.00000000E+00  0.00000000E+00  0.00000000E+00
  0.00000000E+00  0.00000000E+00  0.00000000E+00
  0.00000000E+00  0.00000000E+00  0.00000000E+00
  0.00000000E+00  0.00000000E+00  0.00000000E+00
  0.00000000E+00  0.00000000E+00  0.00000000E+00
  0.00000000E+00  0.00000000E+00  0.00000000E+00
  0.00000000E+00  0.00000000E+00  0.00000000E+00
  0.00000000E+00  0.00000000E+00  0.00000000E+00
