Au Sn                                    151194
   1.00000000000000     
     3.2545946172734990   -5.8728336307026776    0.0000000000000000
     3.2545946172734990    5.8728336307026776    0.0000000000000000
     0.0000000000000000    0.0000000000000000    6.4985388673026128
   Au   Sn
     2     8
Direct
  0.0000000000000000  0.0000000000000000  0.0000000000000000
  0.5000000000000000  0.5000000000000000  0.5000000000000000
  0.5335795672809098  0.7943527701461051  0.8323093432728967
  0.0335795672809098  0.2943527701461051  0.6676906567271033
  0.2056472298538949  0.4664204327190902  0.1676906567271033
  0.7056472298538949  0.9664204327190902  0.3323093432728967
  0.9664204327190902  0.7056472298538949  0.6676906567271033
  0.4664204327190902  0.2056472298538949  0.8323093432728967
  0.2943527701461051  0.0335795672809098  0.3323093432728967
  0.7943527701461051  0.5335795672809098  0.1676906567271033
 
  0.00000000E+00  0.00000000E+00  0.00000000E+00
  0.00000000E+00  0.00000000E+00  0.00000000E+00
  0.00000000E+00  0.00000000E+00  0.00000000E+00
  0.00000000E+00  0.00000000E+00  0.00000000E+00
  0.00000000E+00  0.00000000E+00  0.00000000E+00
  0.00000000E+00  0.00000000E+00  0.00000000E+00
  0.00000000E+00  0.00000000E+00  0.00000000E+00
  0.00000000E+00  0.00000000E+00  0.00000000E+00
  0.00000000E+00  0.00000000E+00  0.00000000E+00
  0.00000000E+00  0.00000000E+00  0.00000000E+00
