C Ca Ba O                                100477
   1.00000000000000     
     8.6812655034595743    0.0000000000000000    0.0000000000000000
    -4.3406327517297871    7.5181964629934956    0.0000000000000000
     0.0000000000000000    0.0000000000000000    6.0881800099301673
   C    Ca   Ba   O 
     6     3     3    18
Direct
  0.3333333333333357  0.6666666666666643  0.3554677681210947
  0.6666666666666643  0.3333333333333357  0.6445322318789053
  0.3333333333333357  0.6666666666666643  0.8151638235476852
  0.6666666666666643  0.3333333333333357  0.1848361764523148
  0.0000000000000000  0.0000000000000000  0.2649622719711573
  0.0000000000000000  0.0000000000000000  0.7350377280288427
  0.3608378592674342  0.0000000000000000  0.5000000000000000
  0.6391621407325658  0.6391621407325658  0.5000000000000000
  0.0000000000000000  0.3608378592674342  0.5000000000000000
  0.6874285041852559  0.0000000000000000  0.0000000000000000
  0.3125714958147441  0.3125714958147441  0.0000000000000000
  0.0000000000000000  0.6874285041852559  0.0000000000000000
  0.1888273399160880  0.6758680677925781  0.3594279418956745
  0.4870407278764972  0.8111726600839120  0.3594279418956745
  0.3241319322074219  0.5129592721235028  0.3594279418956745
  0.8111726600839120  0.4870407278764972  0.6405720581043255
  0.6758680677925781  0.1888273399160880  0.6405720581043255
  0.5129592721235028  0.3241319322074219  0.6405720581043255
  0.1781543067132603  0.5237446890474260  0.8180932923938755
  0.3455903823341586  0.8218456932867397  0.8180932923938755
  0.4762553109525740  0.6544096176658485  0.8180932923938755
  0.8218456932867397  0.3455903823341586  0.1819067076061245
  0.5237446890474260  0.1781543067132603  0.1819067076061245
  0.6544096176658485  0.4762553109525740  0.1819067076061245
  0.1504828894639090  0.0029077989007291  0.2582457620616694
  0.8524249094368201  0.8495171105360910  0.2582457620616694
  0.9970922010992709  0.1475750905631799  0.2582457620616694
  0.8495171105360910  0.8524249094368201  0.7417542379383306
  0.0029077989007291  0.1504828894639090  0.7417542379383306
  0.1475750905631799  0.9970922010992709  0.7417542379383306
 
  0.00000000E+00  0.00000000E+00  0.00000000E+00
  0.00000000E+00  0.00000000E+00  0.00000000E+00
  0.00000000E+00  0.00000000E+00  0.00000000E+00
  0.00000000E+00  0.00000000E+00  0.00000000E+00
  0.00000000E+00  0.00000000E+00  0.00000000E+00
  0.00000000E+00  0.00000000E+00  0.00000000E+00
  0.00000000E+00  0.00000000E+00  0.00000000E+00
  0.00000000E+00  0.00000000E+00  0.00000000E+00
  0.00000000E+00  0.00000000E+00  0.00000000E+00
  0.00000000E+00  0.00000000E+00  0.00000000E+00
  0.00000000E+00  0.00000000E+00  0.00000000E+00
  0.00000000E+00  0.00000000E+00  0.00000000E+00
  0.00000000E+00  0.00000000E+00  0.00000000E+00
  0.00000000E+00  0.00000000E+00  0.00000000E+00
  0.00000000E+00  0.00000000E+00  0.00000000E+00
  0.00000000E+00  0.00000000E+00  0.00000000E+00
  0.00000000E+00  0.00000000E+00  0.00000000E+00
  0.00000000E+00  0.00000000E+00  0.00000000E+00
  0.00000000E+00  0.00000000E+00  0.00000000E+00
  0.00000000E+00  0.00000000E+00  0.00000000E+00
  0.00000000E+00  0.00000000E+00  0.00000000E+00
  0.00000000E+00  0.00000000E+00  0.00000000E+00
  0.00000000E+00  0.00000000E+00  0.00000000E+00
  0.00000000E+00  0.00000000E+00  0.00000000E+00
  0.00000000E+00  0.00000000E+00  0.00000000E+00
  0.00000000E+00  0.00000000E+00  0.00000000E+00
  0.00000000E+00  0.00000000E+00  0.00000000E+00
  0.00000000E+00  0.00000000E+00  0.00000000E+00
  0.00000000E+00  0.00000000E+00  0.00000000E+00
  0.00000000E+00  0.00000000E+00  0.00000000E+00
