H Ti                                     168327
   1.00000000000000     
     4.3793760536420905    0.0000000000000000    0.0000000000000000
     0.0000000000000000    4.3793760536420905    0.0000000000000000
     0.0000000000000000    0.0000000000000000    4.4451908803894229
   H    Ti
     6     4
Direct
  0.0000000000000000  0.5000000000000000  0.7500000000000000
  0.0000000000000000  0.5000000000000000  0.2500000000000000
  0.5000000000000000  0.0000000000000000  0.7500000000000000
  0.5000000000000000  0.0000000000000000  0.2500000000000000
  0.5000000000000000  0.5000000000000000  0.7500000000000000
  0.5000000000000000  0.5000000000000000  0.2500000000000000
  0.2373807743012577  0.7626192256987423  0.0000000000000000
  0.7626192256987423  0.2373807743012577  0.0000000000000000
  0.7626192256987423  0.7626192256987423  0.5000000000000000
  0.2373807743012577  0.2373807743012577  0.5000000000000000
 
  0.00000000E+00  0.00000000E+00  0.00000000E+00
  0.00000000E+00  0.00000000E+00  0.00000000E+00
  0.00000000E+00  0.00000000E+00  0.00000000E+00
  0.00000000E+00  0.00000000E+00  0.00000000E+00
  0.00000000E+00  0.00000000E+00  0.00000000E+00
  0.00000000E+00  0.00000000E+00  0.00000000E+00
  0.00000000E+00  0.00000000E+00  0.00000000E+00
  0.00000000E+00  0.00000000E+00  0.00000000E+00
  0.00000000E+00  0.00000000E+00  0.00000000E+00
  0.00000000E+00  0.00000000E+00  0.00000000E+00
