Na Zn O H                                61205
   1.00000000000000     
    10.5493528180194200    0.0000000000000000    0.0000000000000000
     0.0000000000000000   10.5493528180194200    0.0000000000000000
     0.0000000000000000    0.0000000000000000    5.2127977999227069
   Na   Zn   O    H 
     8     8    24    24
Direct
  0.3792940307886070  0.4077929576072634  0.9599527332190263
  0.4077929576072634  0.6207059692113930  0.4599527332190263
  0.0922070423927366  0.1207059692113930  0.4599527332190263
  0.6207059692113930  0.5922070423927366  0.9599527332190263
  0.1207059692113930  0.9077929576072634  0.9599527332190263
  0.5922070423927366  0.3792940307886070  0.4599527332190263
  0.9077929576072634  0.8792940307886070  0.4599527332190263
  0.8792940307886070  0.0922070423927366  0.9599527332190263
  0.0556717057504699  0.3081609742514431  0.9894556438830335
  0.3081609742514431  0.9443282942495301  0.4894556438830335
  0.1918390257485569  0.4443282942495301  0.4894556438830335
  0.9443282942495301  0.6918390257485569  0.9894556438830335
  0.4443282942495301  0.8081609742514431  0.9894556438830335
  0.6918390257485569  0.0556717057504699  0.4894556438830335
  0.8081609742514431  0.5556717057504699  0.4894556438830335
  0.5556717057504699  0.1918390257485569  0.9894556438830335
  0.6679118779445972  0.0667690689480480  0.8594833573819542
  0.0667690689480480  0.3320881220554028  0.3594833573819542
  0.4332309310519520  0.8320881220554028  0.3594833573819542
  0.3320881220554028  0.9332309310519520  0.8594833573819542
  0.8320881220554028  0.5667690689480480  0.8594833573819542
  0.9332309310519520  0.6679118779445972  0.3594833573819542
  0.5667690689480480  0.1679118779445972  0.3594833573819542
  0.1679118779445972  0.4332309310519520  0.8594833573819542
  0.0998229181000809  0.1337797028048087  0.9282254133922194
  0.1337797028048087  0.9001770818999191  0.4282254133922194
  0.3662202971951913  0.4001770818999191  0.4282254133922194
  0.9001770818999191  0.8662202971951913  0.9282254133922194
  0.4001770818999191  0.6337797028048087  0.9282254133922194
  0.8662202971951913  0.0998229181000809  0.4282254133922194
  0.6337797028048087  0.5998229181000809  0.4282254133922194
  0.5998229181000809  0.3662202971951913  0.9282254133922194
  0.8761694039676797  0.3187767580232546  0.9218754572247150
  0.3187767580232546  0.1238305960323203  0.4218754572247150
  0.1812232419767454  0.6238305960323203  0.4218754572247150
  0.1238305960323203  0.6812232419767454  0.9218754572247150
  0.6238305960323203  0.8187767580232546  0.9218754572247150
  0.6812232419767454  0.8761694039676797  0.4218754572247150
  0.8187767580232546  0.3761694039676797  0.4218754572247150
  0.3761694039676797  0.1812232419767454  0.9218754572247150
  0.6400983141990437  0.9790415068439415  0.9091053301716983
  0.9790415068439415  0.3599016858009563  0.4091053301716983
  0.5209584931560585  0.8599016858009563  0.4091053301716983
  0.3599016858009563  0.0209584931560585  0.9091053301716983
  0.8599016858009563  0.4790415068439415  0.9091053301716983
  0.0209584931560585  0.6400983141990437  0.4091053301716983
  0.4790415068439415  0.1400983141990437  0.4091053301716983
  0.1400983141990437  0.5209584931560585  0.9091053301716983
  0.1932739315836827  0.1382497323198848  0.9351244280499884
  0.1382497323198848  0.8067260684163173  0.4351244280499884
  0.3617502676801152  0.3067260684163173  0.4351244280499884
  0.8067260684163173  0.8617502676801152  0.9351244280499884
  0.3067260684163173  0.6382497323198848  0.9351244280499884
  0.8617502676801152  0.1932739315836827  0.4351244280499884
  0.6382497323198848  0.6932739315836827  0.4351244280499884
  0.6932739315836827  0.3617502676801152  0.9351244280499884
  0.8573262823601624  0.3230705528557181  0.7347776366773573
  0.3230705528557181  0.1426737176398376  0.2347776366773573
  0.1769294471442819  0.6426737176398376  0.2347776366773573
  0.1426737176398376  0.6769294471442819  0.7347776366773573
  0.6426737176398376  0.8230705528557181  0.7347776366773573
  0.6769294471442819  0.8573262823601624  0.2347776366773573
  0.8230705528557181  0.3573262823601624  0.2347776366773573
  0.3573262823601624  0.1769294471442819  0.7347776366773573
 
  0.00000000E+00  0.00000000E+00  0.00000000E+00
  0.00000000E+00  0.00000000E+00  0.00000000E+00
  0.00000000E+00  0.00000000E+00  0.00000000E+00
  0.00000000E+00  0.00000000E+00  0.00000000E+00
  0.00000000E+00  0.00000000E+00  0.00000000E+00
  0.00000000E+00  0.00000000E+00  0.00000000E+00
  0.00000000E+00  0.00000000E+00  0.00000000E+00
  0.00000000E+00  0.00000000E+00  0.00000000E+00
  0.00000000E+00  0.00000000E+00  0.00000000E+00
  0.00000000E+00  0.00000000E+00  0.00000000E+00
  0.00000000E+00  0.00000000E+00  0.00000000E+00
  0.00000000E+00  0.00000000E+00  0.00000000E+00
  0.00000000E+00  0.00000000E+00  0.00000000E+00
  0.00000000E+00  0.00000000E+00  0.00000000E+00
  0.00000000E+00  0.00000000E+00  0.00000000E+00
  0.00000000E+00  0.00000000E+00  0.00000000E+00
  0.00000000E+00  0.00000000E+00  0.00000000E+00
  0.00000000E+00  0.00000000E+00  0.00000000E+00
  0.00000000E+00  0.00000000E+00  0.00000000E+00
  0.00000000E+00  0.00000000E+00  0.00000000E+00
  0.00000000E+00  0.00000000E+00  0.00000000E+00
  0.00000000E+00  0.00000000E+00  0.00000000E+00
  0.00000000E+00  0.00000000E+00  0.00000000E+00
  0.00000000E+00  0.00000000E+00  0.00000000E+00
  0.00000000E+00  0.00000000E+00  0.00000000E+00
  0.00000000E+00  0.00000000E+00  0.00000000E+00
  0.00000000E+00  0.00000000E+00  0.00000000E+00
  0.00000000E+00  0.00000000E+00  0.00000000E+00
  0.00000000E+00  0.00000000E+00  0.00000000E+00
  0.00000000E+00  0.00000000E+00  0.00000000E+00
  0.00000000E+00  0.00000000E+00  0.00000000E+00
  0.00000000E+00  0.00000000E+00  0.00000000E+00
  0.00000000E+00  0.00000000E+00  0.00000000E+00
  0.00000000E+00  0.00000000E+00  0.00000000E+00
  0.00000000E+00  0.00000000E+00  0.00000000E+00
  0.00000000E+00  0.00000000E+00  0.00000000E+00
  0.00000000E+00  0.00000000E+00  0.00000000E+00
  0.00000000E+00  0.00000000E+00  0.00000000E+00
  0.00000000E+00  0.00000000E+00  0.00000000E+00
  0.00000000E+00  0.00000000E+00  0.00000000E+00
  0.00000000E+00  0.00000000E+00  0.00000000E+00
  0.00000000E+00  0.00000000E+00  0.00000000E+00
  0.00000000E+00  0.00000000E+00  0.00000000E+00
  0.00000000E+00  0.00000000E+00  0.00000000E+00
  0.00000000E+00  0.00000000E+00  0.00000000E+00
  0.00000000E+00  0.00000000E+00  0.00000000E+00
  0.00000000E+00  0.00000000E+00  0.00000000E+00
  0.00000000E+00  0.00000000E+00  0.00000000E+00
  0.00000000E+00  0.00000000E+00  0.00000000E+00
  0.00000000E+00  0.00000000E+00  0.00000000E+00
  0.00000000E+00  0.00000000E+00  0.00000000E+00
  0.00000000E+00  0.00000000E+00  0.00000000E+00
  0.00000000E+00  0.00000000E+00  0.00000000E+00
  0.00000000E+00  0.00000000E+00  0.00000000E+00
  0.00000000E+00  0.00000000E+00  0.00000000E+00
  0.00000000E+00  0.00000000E+00  0.00000000E+00
  0.00000000E+00  0.00000000E+00  0.00000000E+00
  0.00000000E+00  0.00000000E+00  0.00000000E+00
  0.00000000E+00  0.00000000E+00  0.00000000E+00
  0.00000000E+00  0.00000000E+00  0.00000000E+00
  0.00000000E+00  0.00000000E+00  0.00000000E+00
  0.00000000E+00  0.00000000E+00  0.00000000E+00
  0.00000000E+00  0.00000000E+00  0.00000000E+00
  0.00000000E+00  0.00000000E+00  0.00000000E+00
