Ni Sn Ce                                 102239
   1.00000000000000     
     2.2831999443108164  -13.5619222642778947    0.0000000000000000
     2.2831999443108164   13.5619222642778947    0.0000000000000000
     0.0000000000000000    0.0000000000000000    4.5525263905418187
   Ni   Sn   Ce
     2     7     3
Direct
  0.3724770969141034  0.6275229030858966  0.0000000000000000
  0.6275229030858966  0.3724770969141034  0.0000000000000000
  0.0000000000000000  0.0000000000000000  0.5000000000000000
  0.4094374053237289  0.5905625946762711  0.5000000000000000
  0.5905625946762711  0.4094374053237289  0.5000000000000000
  0.0905886717135260  0.9094113282864740  0.0000000000000000
  0.9094113282864740  0.0905886717135260  0.0000000000000000
  0.2823410743660375  0.7176589256339625  0.0000000000000000
  0.7176589256339625  0.2823410743660375  0.0000000000000000
  0.5000000000000000  0.5000000000000000  0.0000000000000000
  0.1852039844577931  0.8147960155422069  0.5000000000000000
  0.8147960155422069  0.1852039844577931  0.5000000000000000
 
  0.00000000E+00  0.00000000E+00  0.00000000E+00
  0.00000000E+00  0.00000000E+00  0.00000000E+00
  0.00000000E+00  0.00000000E+00  0.00000000E+00
  0.00000000E+00  0.00000000E+00  0.00000000E+00
  0.00000000E+00  0.00000000E+00  0.00000000E+00
  0.00000000E+00  0.00000000E+00  0.00000000E+00
  0.00000000E+00  0.00000000E+00  0.00000000E+00
  0.00000000E+00  0.00000000E+00  0.00000000E+00
  0.00000000E+00  0.00000000E+00  0.00000000E+00
  0.00000000E+00  0.00000000E+00  0.00000000E+00
  0.00000000E+00  0.00000000E+00  0.00000000E+00
  0.00000000E+00  0.00000000E+00  0.00000000E+00
