Sr Ge                                    10000
   1.00000000000000     
     4.1223404381953221    0.0000000000000000    0.0000000000000000
    -2.0611702190976611    3.5700515425250230    0.0000000000000000
     0.0000000000000000    0.0000000000000000    5.0657724833950324
   Sr   Ge
     1     2
Direct
  0.0000000000000000  0.0000000000000000  0.0000000000000000
  0.3333333333333357  0.6666666666666643  0.5982747806463919
  0.6666666666666643  0.3333333333333357  0.4017252193536081
 
  0.00000000E+00  0.00000000E+00  0.00000000E+00
  0.00000000E+00  0.00000000E+00  0.00000000E+00
  0.00000000E+00  0.00000000E+00  0.00000000E+00
