I H C Sn                                 110024
   1.00000000000000     
     9.4023433146563811    0.0000000000000000    0.0000000000000000
     0.0000000000000000    9.4023433146563811    0.0000000000000000
     0.0000000000000000    0.0000000000000000    7.2480930430639932
   I    H    C    Sn
     8    16     8     2
Direct
  0.7229861744826351  0.9414473419338094  0.6773956106823888
  0.4414473419338094  0.2229861744826351  0.1773956106823888
  0.9414473419338094  0.2770138255173649  0.3226043893176112
  0.7770138255173649  0.4414473419338094  0.8226043893176112
  0.2229861744826351  0.5585526580661906  0.8226043893176112
  0.2770138255173649  0.0585526580661906  0.6773956106823888
  0.5585526580661906  0.7770138255173649  0.1773956106823888
  0.0585526580661906  0.7229861744826351  0.3226043893176112
  0.8443229815269007  0.7618436818064538  0.9126568245653885
  0.2618436818064538  0.3443229815269007  0.4126568245653885
  0.7618436818064538  0.1556770184730993  0.0873431754346115
  0.6556770184730993  0.2618436818064538  0.5873431754346115
  0.3443229815269007  0.7381563181935462  0.5873431754346115
  0.1556770184730993  0.2381563181935462  0.9126568245653885
  0.7381563181935462  0.6556770184730993  0.4126568245653885
  0.2381563181935462  0.8443229815269007  0.0873431754346115
  0.9665638552387321  0.7988655546594998  0.7267037947491133
  0.2988655546594998  0.4665638552387321  0.2267037947491133
  0.7988655546594998  0.0334361447612679  0.2732962052508867
  0.5334361447612679  0.2988655546594998  0.7732962052508867
  0.4665638552387321  0.7011344453405002  0.7732962052508867
  0.0334361447612679  0.2011344453405002  0.7267037947491133
  0.7011344453405002  0.5334361447612679  0.2267037947491133
  0.2011344453405002  0.9665638552387321  0.2732962052508867
  0.8936109598309017  0.8458253362588124  0.8286363958272887
  0.3458253362588124  0.3936109598309017  0.3286363958272887
  0.8458253362588124  0.1063890401690983  0.1713636041727113
  0.6063890401690983  0.3458253362588124  0.6713636041727113
  0.3936109598309017  0.6541746637411876  0.6713636041727113
  0.1063890401690983  0.1541746637411876  0.8286363958272887
  0.6541746637411876  0.6063890401690983  0.3286363958272887
  0.1541746637411876  0.8936109598309017  0.1713636041727113
  0.0000000000000000  0.0000000000000000  0.0000000000000000
  0.5000000000000000  0.5000000000000000  0.5000000000000000
 
  0.00000000E+00  0.00000000E+00  0.00000000E+00
  0.00000000E+00  0.00000000E+00  0.00000000E+00
  0.00000000E+00  0.00000000E+00  0.00000000E+00
  0.00000000E+00  0.00000000E+00  0.00000000E+00
  0.00000000E+00  0.00000000E+00  0.00000000E+00
  0.00000000E+00  0.00000000E+00  0.00000000E+00
  0.00000000E+00  0.00000000E+00  0.00000000E+00
  0.00000000E+00  0.00000000E+00  0.00000000E+00
  0.00000000E+00  0.00000000E+00  0.00000000E+00
  0.00000000E+00  0.00000000E+00  0.00000000E+00
  0.00000000E+00  0.00000000E+00  0.00000000E+00
  0.00000000E+00  0.00000000E+00  0.00000000E+00
  0.00000000E+00  0.00000000E+00  0.00000000E+00
  0.00000000E+00  0.00000000E+00  0.00000000E+00
  0.00000000E+00  0.00000000E+00  0.00000000E+00
  0.00000000E+00  0.00000000E+00  0.00000000E+00
  0.00000000E+00  0.00000000E+00  0.00000000E+00
  0.00000000E+00  0.00000000E+00  0.00000000E+00
  0.00000000E+00  0.00000000E+00  0.00000000E+00
  0.00000000E+00  0.00000000E+00  0.00000000E+00
  0.00000000E+00  0.00000000E+00  0.00000000E+00
  0.00000000E+00  0.00000000E+00  0.00000000E+00
  0.00000000E+00  0.00000000E+00  0.00000000E+00
  0.00000000E+00  0.00000000E+00  0.00000000E+00
  0.00000000E+00  0.00000000E+00  0.00000000E+00
  0.00000000E+00  0.00000000E+00  0.00000000E+00
  0.00000000E+00  0.00000000E+00  0.00000000E+00
  0.00000000E+00  0.00000000E+00  0.00000000E+00
  0.00000000E+00  0.00000000E+00  0.00000000E+00
  0.00000000E+00  0.00000000E+00  0.00000000E+00
  0.00000000E+00  0.00000000E+00  0.00000000E+00
  0.00000000E+00  0.00000000E+00  0.00000000E+00
  0.00000000E+00  0.00000000E+00  0.00000000E+00
  0.00000000E+00  0.00000000E+00  0.00000000E+00
