Pb S Ta                                  169769
   1.00000000000000     
    11.6129158764830684  -12.0018880169392510    0.0000000000000000
    11.6129158764830684   12.0018880169392510    0.0000000000000000
     0.0000000000000000    0.0000000000000000    5.7845958702747806
   Pb   S    Ta
    16    44    14
Direct
  0.7496254128225246  0.8755415912789744  0.0139715195985275
  0.1244584087210256  0.2503745871774754  0.5139715195985275
  0.2503745871774754  0.1244584087210256  0.0139715195985275
  0.8755415912789744  0.7496254128225246  0.5139715195985275
  0.0008993032222691  0.1247912118902761  0.0081910135815164
  0.8752087881097239  0.9991006967777309  0.5081910135815164
  0.9991006967777309  0.8752087881097239  0.0081910135815164
  0.1247912118902761  0.0008993032222691  0.5081910135815164
  0.2506159341358938  0.3739556363704608  0.0064000386707406
  0.6260443636295392  0.7493840658641062  0.5064000386707406
  0.7493840658641062  0.6260443636295392  0.0064000386707406
  0.3739556363704608  0.2506159341358938  0.5064000386707406
  0.4997761851288232  0.6246677923611728  0.0116662247460084
  0.3753322076388272  0.5002238148711697  0.5116662247460084
  0.5002238148711697  0.3753322076388272  0.0116662247460084
  0.6246677923611728  0.4997761851288232  0.5116662247460084
  0.7202806835725895  0.3509127902176843  0.2566461981655053
  0.6490872097823157  0.2797193164274105  0.7566461981654982
  0.2797193164274105  0.6490872097823157  0.2566461981655053
  0.3509127902176843  0.7202806835725895  0.7566461981654982
  0.8635449206188994  0.4935870813176919  0.2527525237930845
  0.5064129186823081  0.1364550793811006  0.7527525237930845
  0.1364550793811006  0.5064129186823081  0.2527525237930845
  0.4935870813176919  0.8635449206188994  0.7527525237930845
  0.2913189838428423  0.9231321263037700  0.2551429094832613
  0.0768678736962229  0.7086810161571577  0.7551429094832613
  0.7086810161571577  0.0768678736962229  0.2551429094832613
  0.9231321263037700  0.2913189838428423  0.7551429094832613
  0.1493040332276436  0.7794224826024632  0.2560314349077899
  0.2205775173975439  0.8506959667723564  0.7560314349077899
  0.8506959667723564  0.2205775173975439  0.2560314349077899
  0.7794224826024632  0.1493040332276436  0.7560314349077899
  0.0061771027657613  0.6367037632560084  0.2531655728053153
  0.3632962367439916  0.9938228972342387  0.7531655728053153
  0.9938228972342387  0.3632962367439916  0.2531655728053153
  0.6367037632560084  0.0061771027657613  0.7531655728053153
  0.5769889340823227  0.2086707640880192  0.2548859465633839
  0.7913292359119808  0.4230110659176773  0.7548859465633839
  0.4230110659176773  0.7913292359119808  0.2548859465633839
  0.2086707640880192  0.5769889340823227  0.7548859465633839
  0.4337293489336389  0.0661760131732549  0.2533228114432831
  0.9338239868267451  0.5662706510663611  0.7533228114432831
  0.5662706510663611  0.9338239868267451  0.2533228114432831
  0.0661760131732549  0.4337293489336389  0.7533228114432831
  0.7619046795290316  0.8630350328552154  0.5106800942875793
  0.1369649671447846  0.2380953204709684  0.0106800942875793
  0.2380953204709684  0.1369649671447846  0.5106800942875793
  0.8630350328552154  0.7619046795290316  0.0106800942875793
  0.0105779155070493  0.1143533764984070  0.5087610931436046
  0.8856466235015930  0.9894220844929578  0.0087610931436046
  0.9894220844929578  0.8856466235015930  0.5087610931436046
  0.1143533764984141  0.0105779155070422  0.0087610931436046
  0.2602339983472177  0.3648547225428871  0.5083379239054935
  0.6351452774571129  0.7397660016527823  0.0083379239054935
  0.7397660016527823  0.6351452774571129  0.5083379239054935
  0.3648547225428871  0.2602339983472177  0.0083379239054935
  0.5113491008990749  0.6137677864619349  0.5103225610034556
  0.3862322135380651  0.4886508991009251  0.0103225610034556
  0.4886508991009251  0.3862322135380651  0.5103225610034556
  0.6137677864619349  0.5113491008990749  0.0103225610034556
  0.0000000000000000  0.5000000000000000  0.4262384864822693
  0.5000000000000000  0.0000000000000000  0.9262384864822693
  0.7859167283876971  0.2863478276957423  0.9213163613636937
  0.7136521723042577  0.2140832716123029  0.4213163613636937
  0.2140832716123029  0.7136521723042577  0.9213163613636937
  0.2863478276957423  0.7859167283876971  0.4213163613636937
  0.3581111226843987  0.8582944878213823  0.9233905099592690
  0.1417055121786177  0.6418888773156013  0.4233905099592690
  0.6418888773156013  0.1417055121786177  0.9233905099592690
  0.8582944878213823  0.3581111226843987  0.4233905099592690
  0.9291560151490046  0.4287485358993024  0.9181460193373070
  0.5712514641006976  0.0708439848509954  0.4181460193373141
  0.0708439848509954  0.5712514641006976  0.9181460193373070
  0.4287485358993024  0.9291560151490046  0.4181460193373141
 
  0.00000000E+00  0.00000000E+00  0.00000000E+00
  0.00000000E+00  0.00000000E+00  0.00000000E+00
  0.00000000E+00  0.00000000E+00  0.00000000E+00
  0.00000000E+00  0.00000000E+00  0.00000000E+00
  0.00000000E+00  0.00000000E+00  0.00000000E+00
  0.00000000E+00  0.00000000E+00  0.00000000E+00
  0.00000000E+00  0.00000000E+00  0.00000000E+00
  0.00000000E+00  0.00000000E+00  0.00000000E+00
  0.00000000E+00  0.00000000E+00  0.00000000E+00
  0.00000000E+00  0.00000000E+00  0.00000000E+00
  0.00000000E+00  0.00000000E+00  0.00000000E+00
  0.00000000E+00  0.00000000E+00  0.00000000E+00
  0.00000000E+00  0.00000000E+00  0.00000000E+00
  0.00000000E+00  0.00000000E+00  0.00000000E+00
  0.00000000E+00  0.00000000E+00  0.00000000E+00
  0.00000000E+00  0.00000000E+00  0.00000000E+00
  0.00000000E+00  0.00000000E+00  0.00000000E+00
  0.00000000E+00  0.00000000E+00  0.00000000E+00
  0.00000000E+00  0.00000000E+00  0.00000000E+00
  0.00000000E+00  0.00000000E+00  0.00000000E+00
  0.00000000E+00  0.00000000E+00  0.00000000E+00
  0.00000000E+00  0.00000000E+00  0.00000000E+00
  0.00000000E+00  0.00000000E+00  0.00000000E+00
  0.00000000E+00  0.00000000E+00  0.00000000E+00
  0.00000000E+00  0.00000000E+00  0.00000000E+00
  0.00000000E+00  0.00000000E+00  0.00000000E+00
  0.00000000E+00  0.00000000E+00  0.00000000E+00
  0.00000000E+00  0.00000000E+00  0.00000000E+00
  0.00000000E+00  0.00000000E+00  0.00000000E+00
  0.00000000E+00  0.00000000E+00  0.00000000E+00
  0.00000000E+00  0.00000000E+00  0.00000000E+00
  0.00000000E+00  0.00000000E+00  0.00000000E+00
  0.00000000E+00  0.00000000E+00  0.00000000E+00
  0.00000000E+00  0.00000000E+00  0.00000000E+00
  0.00000000E+00  0.00000000E+00  0.00000000E+00
  0.00000000E+00  0.00000000E+00  0.00000000E+00
  0.00000000E+00  0.00000000E+00  0.00000000E+00
  0.00000000E+00  0.00000000E+00  0.00000000E+00
  0.00000000E+00  0.00000000E+00  0.00000000E+00
  0.00000000E+00  0.00000000E+00  0.00000000E+00
  0.00000000E+00  0.00000000E+00  0.00000000E+00
  0.00000000E+00  0.00000000E+00  0.00000000E+00
  0.00000000E+00  0.00000000E+00  0.00000000E+00
  0.00000000E+00  0.00000000E+00  0.00000000E+00
  0.00000000E+00  0.00000000E+00  0.00000000E+00
  0.00000000E+00  0.00000000E+00  0.00000000E+00
  0.00000000E+00  0.00000000E+00  0.00000000E+00
  0.00000000E+00  0.00000000E+00  0.00000000E+00
  0.00000000E+00  0.00000000E+00  0.00000000E+00
  0.00000000E+00  0.00000000E+00  0.00000000E+00
  0.00000000E+00  0.00000000E+00  0.00000000E+00
  0.00000000E+00  0.00000000E+00  0.00000000E+00
  0.00000000E+00  0.00000000E+00  0.00000000E+00
  0.00000000E+00  0.00000000E+00  0.00000000E+00
  0.00000000E+00  0.00000000E+00  0.00000000E+00
  0.00000000E+00  0.00000000E+00  0.00000000E+00
  0.00000000E+00  0.00000000E+00  0.00000000E+00
  0.00000000E+00  0.00000000E+00  0.00000000E+00
  0.00000000E+00  0.00000000E+00  0.00000000E+00
  0.00000000E+00  0.00000000E+00  0.00000000E+00
  0.00000000E+00  0.00000000E+00  0.00000000E+00
  0.00000000E+00  0.00000000E+00  0.00000000E+00
  0.00000000E+00  0.00000000E+00  0.00000000E+00
  0.00000000E+00  0.00000000E+00  0.00000000E+00
  0.00000000E+00  0.00000000E+00  0.00000000E+00
  0.00000000E+00  0.00000000E+00  0.00000000E+00
  0.00000000E+00  0.00000000E+00  0.00000000E+00
  0.00000000E+00  0.00000000E+00  0.00000000E+00
  0.00000000E+00  0.00000000E+00  0.00000000E+00
  0.00000000E+00  0.00000000E+00  0.00000000E+00
  0.00000000E+00  0.00000000E+00  0.00000000E+00
  0.00000000E+00  0.00000000E+00  0.00000000E+00
  0.00000000E+00  0.00000000E+00  0.00000000E+00
  0.00000000E+00  0.00000000E+00  0.00000000E+00
