K Cl O Cu V                              401042
   1.00000000000000     
     8.8773496953003832   -0.0000002836560647    0.0000000000000000
     0.0000002836560647    8.8773496953003832    0.0000000000000000
     0.0000000000000000    0.0000000000000000    5.4849363783368172
   K    Cl   O    Cu   V 
     4     1    15     1     5
Direct
  0.6871578684389021  0.1527582011252520  0.4236978103372735
  0.8472417988747480  0.6871578684389021  0.4236978103372735
  0.1527582011252520  0.3128421315610979  0.4236978103372735
  0.3128421315610979  0.8472417988747480  0.4236978103372735
  0.0000000000000000  0.0000000000000000  0.2961887183947880
  0.3790792657528357  0.1402418604024547  0.1960891491866477
  0.8597581395975453  0.3790792657528357  0.1960891491866477
  0.1402418604024547  0.6209207342471643  0.1960891491866477
  0.6209207342471643  0.8597581395975453  0.1960891491866477
  0.1952508194902265  0.0910520461487252  0.7971640526683359
  0.9089479538512748  0.1952508194902265  0.7971640526683359
  0.0910520461487252  0.8047491805097735  0.7971640526683359
  0.8047491805097735  0.9089479538512748  0.7971640526683359
  0.4132075016925896  0.3154484002122899  0.7689632145740930
  0.6845515997877030  0.4132075016925896  0.7689632145740930
  0.3154484002122899  0.5867924983074104  0.7689632145740930
  0.5867924983074104  0.6845515997877030  0.7689632145740930
  0.5000000000000000  0.0000000000000000  0.7750108693553273
  0.0000000000000000  0.5000000000000000  0.7750108693553273
  0.5000000000000000  0.5000000000000000  0.1510760360806600
  0.0000000000000000  0.0000000000000000  0.8464087970666725
  0.3692460501103128  0.1379869415038399  0.8957099860188364
  0.8620130584961601  0.3692460501103128  0.8957099860188364
  0.1379869415038399  0.6307539498896872  0.8957099860188364
  0.6307539498896872  0.8620130584961601  0.8957099860188364
  0.5000000000000000  0.5000000000000000  0.8580178586061962
 
  0.00000000E+00  0.00000000E+00  0.00000000E+00
  0.00000000E+00  0.00000000E+00  0.00000000E+00
  0.00000000E+00  0.00000000E+00  0.00000000E+00
  0.00000000E+00  0.00000000E+00  0.00000000E+00
  0.00000000E+00  0.00000000E+00  0.00000000E+00
  0.00000000E+00  0.00000000E+00  0.00000000E+00
  0.00000000E+00  0.00000000E+00  0.00000000E+00
  0.00000000E+00  0.00000000E+00  0.00000000E+00
  0.00000000E+00  0.00000000E+00  0.00000000E+00
  0.00000000E+00  0.00000000E+00  0.00000000E+00
  0.00000000E+00  0.00000000E+00  0.00000000E+00
  0.00000000E+00  0.00000000E+00  0.00000000E+00
  0.00000000E+00  0.00000000E+00  0.00000000E+00
  0.00000000E+00  0.00000000E+00  0.00000000E+00
  0.00000000E+00  0.00000000E+00  0.00000000E+00
  0.00000000E+00  0.00000000E+00  0.00000000E+00
  0.00000000E+00  0.00000000E+00  0.00000000E+00
  0.00000000E+00  0.00000000E+00  0.00000000E+00
  0.00000000E+00  0.00000000E+00  0.00000000E+00
  0.00000000E+00  0.00000000E+00  0.00000000E+00
  0.00000000E+00  0.00000000E+00  0.00000000E+00
  0.00000000E+00  0.00000000E+00  0.00000000E+00
  0.00000000E+00  0.00000000E+00  0.00000000E+00
  0.00000000E+00  0.00000000E+00  0.00000000E+00
  0.00000000E+00  0.00000000E+00  0.00000000E+00
  0.00000000E+00  0.00000000E+00  0.00000000E+00
