O Te Cu Br                               152960
   1.00000000000000     
     7.7430410114678603   -0.0000024903743033    0.0000000000000000
     0.0000024903743033    7.7430410114678603    0.0000000000000000
     0.0000000000000000    0.0000000000000000    6.3284377411251018
   O    Te   Cu   Br
    10     4     4     4
Direct
  0.6663885971328369  0.4294221136701779  0.6410789277455820
  0.5705778863298292  0.6663885971328369  0.3589210722544180
  0.4294221136701779  0.3336114028671631  0.3589210722544180
  0.3336114028671631  0.5705778863298292  0.6410789277455820
  0.7597684926825252  0.5340792507157275  0.0608996381822280
  0.4659207492842725  0.7597684926825252  0.9391003618177720
  0.5340792507157275  0.2402315073174748  0.9391003618177720
  0.2402315073174748  0.4659207492842725  0.0608996381822280
  0.0000000000000000  0.5000000000000000  0.7363995380752968
  0.5000000000000000  0.0000000000000000  0.2636004619247032
  0.8202233497054578  0.3561678561883141  0.8651306360579056
  0.6438321438116859  0.8202233497054578  0.1348693639420944
  0.3561678561883141  0.1797766502945350  0.1348693639420944
  0.1797766502945350  0.6438321438116859  0.8651306360579056
  0.4585695952302231  0.2832789608082535  0.6555583609284668
  0.7167210391917465  0.4585695952302231  0.3444416390715332
  0.2832789608082535  0.5414304047697769  0.3444416390715332
  0.5414304047697769  0.7167210391917465  0.6555583609284668
  0.2200004040394461  0.0930781588361143  0.6929186925182904
  0.9069218411638857  0.2200004040394461  0.3070813074817096
  0.0930781588361143  0.7799995959605539  0.3070813074817096
  0.7799995959605539  0.9069218411638857  0.6929186925182904
 
  0.00000000E+00  0.00000000E+00  0.00000000E+00
  0.00000000E+00  0.00000000E+00  0.00000000E+00
  0.00000000E+00  0.00000000E+00  0.00000000E+00
  0.00000000E+00  0.00000000E+00  0.00000000E+00
  0.00000000E+00  0.00000000E+00  0.00000000E+00
  0.00000000E+00  0.00000000E+00  0.00000000E+00
  0.00000000E+00  0.00000000E+00  0.00000000E+00
  0.00000000E+00  0.00000000E+00  0.00000000E+00
  0.00000000E+00  0.00000000E+00  0.00000000E+00
  0.00000000E+00  0.00000000E+00  0.00000000E+00
  0.00000000E+00  0.00000000E+00  0.00000000E+00
  0.00000000E+00  0.00000000E+00  0.00000000E+00
  0.00000000E+00  0.00000000E+00  0.00000000E+00
  0.00000000E+00  0.00000000E+00  0.00000000E+00
  0.00000000E+00  0.00000000E+00  0.00000000E+00
  0.00000000E+00  0.00000000E+00  0.00000000E+00
  0.00000000E+00  0.00000000E+00  0.00000000E+00
  0.00000000E+00  0.00000000E+00  0.00000000E+00
  0.00000000E+00  0.00000000E+00  0.00000000E+00
  0.00000000E+00  0.00000000E+00  0.00000000E+00
  0.00000000E+00  0.00000000E+00  0.00000000E+00
  0.00000000E+00  0.00000000E+00  0.00000000E+00
