P S Al                                   15910
   1.00000000000000     
     5.6792149279066857    0.0000000000000000    0.0000000000000000
     0.0000000000000000    5.6681970336558916    0.0000000000000000
     0.0000000000000000    0.0000000000000000    9.3383013489045759
   P    S    Al
     2     8     2
Direct
  0.0000000000000000  0.5000000000000000  0.0000000000000000
  0.0000000000000000  0.0000000000000000  0.5000000000000000
  0.2101117042000382  0.2759429335013763  0.1182348940977604
  0.7898882957999618  0.2759429335013763  0.8817651059022396
  0.2101117042000382  0.7240570664986237  0.8817651059022396
  0.7898882957999618  0.7240570664986237  0.1182348940977604
  0.7754403337826190  0.7961922050542398  0.6219680160074645
  0.2245596662173810  0.7961922050542398  0.3780319839925355
  0.7754403337826190  0.2038077949457602  0.3780319839925355
  0.2245596662173810  0.2038077949457602  0.6219680160074645
  0.0000000000000000  0.0000000000000000  0.0000000000000000
  0.5000000000000000  0.0000000000000000  0.5000000000000000
 
  0.00000000E+00  0.00000000E+00  0.00000000E+00
  0.00000000E+00  0.00000000E+00  0.00000000E+00
  0.00000000E+00  0.00000000E+00  0.00000000E+00
  0.00000000E+00  0.00000000E+00  0.00000000E+00
  0.00000000E+00  0.00000000E+00  0.00000000E+00
  0.00000000E+00  0.00000000E+00  0.00000000E+00
  0.00000000E+00  0.00000000E+00  0.00000000E+00
  0.00000000E+00  0.00000000E+00  0.00000000E+00
  0.00000000E+00  0.00000000E+00  0.00000000E+00
  0.00000000E+00  0.00000000E+00  0.00000000E+00
  0.00000000E+00  0.00000000E+00  0.00000000E+00
  0.00000000E+00  0.00000000E+00  0.00000000E+00
