Ni C H O N                               110325
   1.00000000000000     
    10.9385279724935049    0.0000125693129815    0.0000000000000000
    -5.4692748715910975    9.4730368195295664    0.0000000000000000
     0.0000000000000000    0.0000000000000000    7.0398773932289087
   Ni   C    H    O    N 
     6    20    24    12     2
Direct
  0.0172058611472110  0.8851027222013670  0.3367344909346315
  0.1148972777986330  0.1321031389458440  0.3367344909346315
  0.1321031389458440  0.0172058611472110  0.6632655090653685
  0.8851027222013670  0.8678968610541560  0.6632655090653685
  0.9827941388527890  0.1148972777986330  0.6632655090653685
  0.8678968610541560  0.9827941388527890  0.3367344909346315
  0.8304854678489235  0.8048253538784209  0.2621166233126360
  0.1951746461215791  0.0256601139704955  0.2621166233126360
  0.0256601139704955  0.8304854678489235  0.7378833766873640
  0.8048253538784209  0.9743398860295045  0.7378833766873640
  0.1695145321510765  0.1951746461215791  0.7378833766873640
  0.9743398860295045  0.1695145321510765  0.2621166233126360
  0.0444234434446784  0.7439940993229897  0.3324460029835734
  0.2560059006770103  0.3004293441216745  0.3324460029835734
  0.3004293441216745  0.0444234434446784  0.6675539970164266
  0.7439940993229897  0.6995706558783255  0.6675539970164266
  0.9555765565553216  0.2560059006770103  0.6675539970164266
  0.6995706558783255  0.9555765565553216  0.3324460029835734
  0.6666666666666643  0.3333333333333357  0.2962429589091968
  0.3333333333333357  0.6666666666666643  0.7037570410908032
  0.8021858370837620  0.4532095262412170  0.0138608793311974
  0.5467904737587830  0.3489763108425450  0.0138608793311974
  0.3489763108425450  0.8021858370837620  0.9861391206688026
  0.4532095262412170  0.6510236891574550  0.9861391206688026
  0.1978141629162380  0.5467904737587830  0.9861391206688026
  0.6510236891574550  0.1978141629162380  0.0138608793311974
  0.6742012730855009  0.4322068281785434  0.3462707427458156
  0.5677931718214566  0.2419944449069504  0.3462707427458156
  0.2419944449069504  0.6742012730855009  0.6537292572541844
  0.4322068281785434  0.7580055550930496  0.6537292572541844
  0.3257987269144991  0.5677931718214566  0.6537292572541844
  0.7580055550930496  0.3257987269144991  0.3462707427458156
  0.8890894061105499  0.4450196571936544  0.0788616065752308
  0.5549803428063456  0.4440697489169025  0.0788616065752308
  0.4440697489169025  0.8890894061105499  0.9211383934247692
  0.4450196571936544  0.5559302510830975  0.9211383934247692
  0.1109105938894501  0.5549803428063456  0.9211383934247692
  0.5559302510830975  0.1109105938894501  0.0788616065752308
  0.8057561503597697  0.4450953772599391  0.8587649628078466
  0.5549046227400609  0.3606607730998235  0.8587649628078466
  0.3606607730998235  0.8057561503597697  0.1412350371921534
  0.4450953772599391  0.6393392269001765  0.1412350371921534
  0.1942438496402303  0.5549046227400609  0.1412350371921534
  0.6393392269001765  0.1942438496402303  0.8587649628078466
  0.8075056973764632  0.5527670337779185  0.0545760495980900
  0.4472329662220815  0.2547386635985447  0.0545760495980900
  0.2547386635985447  0.8075056973764632  0.9454239504019100
  0.5527670337779185  0.7452613364014553  0.9454239504019100
  0.1924943026235368  0.4472329662220815  0.9454239504019100
  0.7452613364014553  0.1924943026235368  0.0545760495980900
  0.7384778373123595  0.6990617121819227  0.1936238003552049
  0.3009382878180773  0.0394161251304439  0.1936238003552049
  0.0394161251304439  0.7384778373123595  0.8063761996447951
  0.6990617121819227  0.9605838748695561  0.8063761996447951
  0.2615221626876405  0.3009382878180773  0.8063761996447951
  0.9605838748695561  0.2615221626876405  0.1936238003552049
  0.0676544193308430  0.6510350980729740  0.3423165603736251
  0.3489649019270260  0.4166193212578619  0.3423165603736251
  0.4166193212578619  0.0676544193308430  0.6576834396263820
  0.6510350980729740  0.5833806787421381  0.6576834396263820
  0.9323455806691570  0.3489649019270260  0.6576834396263820
  0.5833806787421381  0.9323455806691570  0.3423165603736251
  0.6666666666666643  0.3333333333333357  0.0844677029225096
  0.3333333333333357  0.6666666666666643  0.9155322970774975
 
  0.00000000E+00  0.00000000E+00  0.00000000E+00
  0.00000000E+00  0.00000000E+00  0.00000000E+00
  0.00000000E+00  0.00000000E+00  0.00000000E+00
  0.00000000E+00  0.00000000E+00  0.00000000E+00
  0.00000000E+00  0.00000000E+00  0.00000000E+00
  0.00000000E+00  0.00000000E+00  0.00000000E+00
  0.00000000E+00  0.00000000E+00  0.00000000E+00
  0.00000000E+00  0.00000000E+00  0.00000000E+00
  0.00000000E+00  0.00000000E+00  0.00000000E+00
  0.00000000E+00  0.00000000E+00  0.00000000E+00
  0.00000000E+00  0.00000000E+00  0.00000000E+00
  0.00000000E+00  0.00000000E+00  0.00000000E+00
  0.00000000E+00  0.00000000E+00  0.00000000E+00
  0.00000000E+00  0.00000000E+00  0.00000000E+00
  0.00000000E+00  0.00000000E+00  0.00000000E+00
  0.00000000E+00  0.00000000E+00  0.00000000E+00
  0.00000000E+00  0.00000000E+00  0.00000000E+00
  0.00000000E+00  0.00000000E+00  0.00000000E+00
  0.00000000E+00  0.00000000E+00  0.00000000E+00
  0.00000000E+00  0.00000000E+00  0.00000000E+00
  0.00000000E+00  0.00000000E+00  0.00000000E+00
  0.00000000E+00  0.00000000E+00  0.00000000E+00
  0.00000000E+00  0.00000000E+00  0.00000000E+00
  0.00000000E+00  0.00000000E+00  0.00000000E+00
  0.00000000E+00  0.00000000E+00  0.00000000E+00
  0.00000000E+00  0.00000000E+00  0.00000000E+00
  0.00000000E+00  0.00000000E+00  0.00000000E+00
  0.00000000E+00  0.00000000E+00  0.00000000E+00
  0.00000000E+00  0.00000000E+00  0.00000000E+00
  0.00000000E+00  0.00000000E+00  0.00000000E+00
  0.00000000E+00  0.00000000E+00  0.00000000E+00
  0.00000000E+00  0.00000000E+00  0.00000000E+00
  0.00000000E+00  0.00000000E+00  0.00000000E+00
  0.00000000E+00  0.00000000E+00  0.00000000E+00
  0.00000000E+00  0.00000000E+00  0.00000000E+00
  0.00000000E+00  0.00000000E+00  0.00000000E+00
  0.00000000E+00  0.00000000E+00  0.00000000E+00
  0.00000000E+00  0.00000000E+00  0.00000000E+00
  0.00000000E+00  0.00000000E+00  0.00000000E+00
  0.00000000E+00  0.00000000E+00  0.00000000E+00
  0.00000000E+00  0.00000000E+00  0.00000000E+00
  0.00000000E+00  0.00000000E+00  0.00000000E+00
  0.00000000E+00  0.00000000E+00  0.00000000E+00
  0.00000000E+00  0.00000000E+00  0.00000000E+00
  0.00000000E+00  0.00000000E+00  0.00000000E+00
  0.00000000E+00  0.00000000E+00  0.00000000E+00
  0.00000000E+00  0.00000000E+00  0.00000000E+00
  0.00000000E+00  0.00000000E+00  0.00000000E+00
  0.00000000E+00  0.00000000E+00  0.00000000E+00
  0.00000000E+00  0.00000000E+00  0.00000000E+00
  0.00000000E+00  0.00000000E+00  0.00000000E+00
  0.00000000E+00  0.00000000E+00  0.00000000E+00
  0.00000000E+00  0.00000000E+00  0.00000000E+00
  0.00000000E+00  0.00000000E+00  0.00000000E+00
  0.00000000E+00  0.00000000E+00  0.00000000E+00
  0.00000000E+00  0.00000000E+00  0.00000000E+00
  0.00000000E+00  0.00000000E+00  0.00000000E+00
  0.00000000E+00  0.00000000E+00  0.00000000E+00
  0.00000000E+00  0.00000000E+00  0.00000000E+00
  0.00000000E+00  0.00000000E+00  0.00000000E+00
  0.00000000E+00  0.00000000E+00  0.00000000E+00
  0.00000000E+00  0.00000000E+00  0.00000000E+00
  0.00000000E+00  0.00000000E+00  0.00000000E+00
  0.00000000E+00  0.00000000E+00  0.00000000E+00
