Si Al O                                  100396
   1.00000000000000     
     7.7851269908178722    0.0000000000000000    0.0000000000000000
     0.0000000000000000    7.9027642830175200    0.0000000000000000
     0.0000000000000000    0.0000000000000000    5.5933032537527358
   Si   Al   O 
     4     8    20
Direct
  0.2457959735087130  0.7501527341708680  0.5000000000000000
  0.2542040264912870  0.2501527341708680  0.0000000000000000
  0.7542040264912870  0.2498472658291320  0.5000000000000000
  0.7457959735087130  0.7498472658291320  0.0000000000000000
  0.0000000000000000  0.5000000000000000  0.7418832342033426
  0.5000000000000000  0.0000000000000000  0.2418832342033426
  0.0000000000000000  0.5000000000000000  0.2581167657966574
  0.5000000000000000  0.0000000000000000  0.7581167657966574
  0.3693334300205109  0.6381619899656883  0.0000000000000000
  0.1306665699794891  0.1381619899656883  0.5000000000000000
  0.6306665699794891  0.3618380100343117  0.0000000000000000
  0.8693334300205109  0.8618380100343117  0.5000000000000000
  0.4262367338125443  0.8607633142747773  0.5000000000000000
  0.0737632661874557  0.3607633142747773  0.0000000000000000
  0.5737632661874557  0.1392366857252227  0.5000000000000000
  0.9262367338125443  0.6392366857252227  0.0000000000000000
  0.1027163672135174  0.9003896780418188  0.5000000000000000
  0.3972836327864826  0.4003896780418188  0.0000000000000000
  0.8972836327864826  0.0996103219581812  0.5000000000000000
  0.6027163672135174  0.5996103219581812  0.0000000000000000
  0.4227259321364727  0.8623442724471246  0.0000000000000000
  0.0772740678635273  0.3623442724471246  0.5000000000000000
  0.5772740678635273  0.1376557275528754  0.0000000000000000
  0.9227259321364727  0.6376557275528754  0.5000000000000000
  0.2291472756893569  0.6313998739048756  0.7399633205428842
  0.2708527243106431  0.1313998739048756  0.2399633205428842
  0.7708527243106431  0.3686001260951244  0.2600366794571158
  0.7291472756893569  0.8686001260951244  0.7600366794571158
  0.2708527243106431  0.1313998739048756  0.7600366794571158
  0.7708527243106431  0.3686001260951244  0.7399633205428842
  0.7291472756893569  0.8686001260951244  0.2399633205428842
  0.2291472756893569  0.6313998739048756  0.2600366794571158
 
  0.00000000E+00  0.00000000E+00  0.00000000E+00
  0.00000000E+00  0.00000000E+00  0.00000000E+00
  0.00000000E+00  0.00000000E+00  0.00000000E+00
  0.00000000E+00  0.00000000E+00  0.00000000E+00
  0.00000000E+00  0.00000000E+00  0.00000000E+00
  0.00000000E+00  0.00000000E+00  0.00000000E+00
  0.00000000E+00  0.00000000E+00  0.00000000E+00
  0.00000000E+00  0.00000000E+00  0.00000000E+00
  0.00000000E+00  0.00000000E+00  0.00000000E+00
  0.00000000E+00  0.00000000E+00  0.00000000E+00
  0.00000000E+00  0.00000000E+00  0.00000000E+00
  0.00000000E+00  0.00000000E+00  0.00000000E+00
  0.00000000E+00  0.00000000E+00  0.00000000E+00
  0.00000000E+00  0.00000000E+00  0.00000000E+00
  0.00000000E+00  0.00000000E+00  0.00000000E+00
  0.00000000E+00  0.00000000E+00  0.00000000E+00
  0.00000000E+00  0.00000000E+00  0.00000000E+00
  0.00000000E+00  0.00000000E+00  0.00000000E+00
  0.00000000E+00  0.00000000E+00  0.00000000E+00
  0.00000000E+00  0.00000000E+00  0.00000000E+00
  0.00000000E+00  0.00000000E+00  0.00000000E+00
  0.00000000E+00  0.00000000E+00  0.00000000E+00
  0.00000000E+00  0.00000000E+00  0.00000000E+00
  0.00000000E+00  0.00000000E+00  0.00000000E+00
  0.00000000E+00  0.00000000E+00  0.00000000E+00
  0.00000000E+00  0.00000000E+00  0.00000000E+00
  0.00000000E+00  0.00000000E+00  0.00000000E+00
  0.00000000E+00  0.00000000E+00  0.00000000E+00
  0.00000000E+00  0.00000000E+00  0.00000000E+00
  0.00000000E+00  0.00000000E+00  0.00000000E+00
  0.00000000E+00  0.00000000E+00  0.00000000E+00
  0.00000000E+00  0.00000000E+00  0.00000000E+00
