Sb Zn Sr                                 10001
   1.00000000000000     
    22.4223931429662677    0.0000000000000000    0.0000000000000000
     0.0000000000000000    4.3500383805552305    0.0000000000000000
     0.0000000000000000    0.0000000000000000    4.3655102717062562
   Sb   Zn   Sr
     8     4     4
Direct
  0.0001910366147229  0.2500000000000000  0.7311526927586627
  0.4998089633852771  0.7500000000000000  0.2311526927586627
  0.9998089633852771  0.7500000000000000  0.2688473072413373
  0.5001910366147229  0.2500000000000000  0.7688473072413373
  0.3235321103762132  0.2500000000000000  0.2309839508399421
  0.1764678896237868  0.7500000000000000  0.7309839508399421
  0.6764678896237868  0.7500000000000000  0.7690160491600579
  0.8235321103762132  0.2500000000000000  0.2690160491600579
  0.2500296134746236  0.2500000000000000  0.7316985995417014
  0.2499703865253764  0.7500000000000000  0.2316985995416943
  0.7499703865253764  0.7500000000000000  0.2683014004582986
  0.7500296134746236  0.2500000000000000  0.7683014004582986
  0.1169435010054585  0.2500000000000000  0.2355969857647651
  0.3830564989945415  0.7500000000000000  0.7355969857647651
  0.8830564989945415  0.7500000000000000  0.7644030142352349
  0.6169435010054585  0.2500000000000000  0.2644030142352349
 
  0.00000000E+00  0.00000000E+00  0.00000000E+00
  0.00000000E+00  0.00000000E+00  0.00000000E+00
  0.00000000E+00  0.00000000E+00  0.00000000E+00
  0.00000000E+00  0.00000000E+00  0.00000000E+00
  0.00000000E+00  0.00000000E+00  0.00000000E+00
  0.00000000E+00  0.00000000E+00  0.00000000E+00
  0.00000000E+00  0.00000000E+00  0.00000000E+00
  0.00000000E+00  0.00000000E+00  0.00000000E+00
  0.00000000E+00  0.00000000E+00  0.00000000E+00
  0.00000000E+00  0.00000000E+00  0.00000000E+00
  0.00000000E+00  0.00000000E+00  0.00000000E+00
  0.00000000E+00  0.00000000E+00  0.00000000E+00
  0.00000000E+00  0.00000000E+00  0.00000000E+00
  0.00000000E+00  0.00000000E+00  0.00000000E+00
  0.00000000E+00  0.00000000E+00  0.00000000E+00
  0.00000000E+00  0.00000000E+00  0.00000000E+00
