P Ge Ba                                  26416
   1.00000000000000     
     7.6143706492486922    0.0000000000000000    0.0000000000000000
     0.0000000000000000    7.6143706492486922    0.0000000000000000
     0.0000000000000000    0.0000000000000000    8.4974963925831837
   P    Ge   Ba
     8     8     4
Direct
  0.2304672162094050  0.2462347781364684  0.2574129217361119
  0.7537652218635316  0.7695327837905950  0.7574129217361119
  0.7537652218635316  0.2304672162094050  0.7574129217361119
  0.7695327837905950  0.2462347781364684  0.2574129217361119
  0.2462347781364684  0.7695327837905950  0.7574129217361119
  0.2462347781364684  0.2304672162094050  0.7574129217361119
  0.7695327837905950  0.7537652218635316  0.2574129217361119
  0.2304672162094050  0.7537652218635316  0.2574129217361119
  0.3312737802504415  0.5000000000000000  0.8636638284787281
  0.5000000000000000  0.6687262197495585  0.3636638284787281
  0.5000000000000000  0.3312737802504415  0.3636638284787281
  0.6687262197495585  0.5000000000000000  0.8636638284787281
  0.5000000000000000  0.1669310009651070  0.6144638829825908
  0.8330689990348930  0.5000000000000000  0.1144638829825908
  0.1669310009651070  0.5000000000000000  0.1144638829825908
  0.5000000000000000  0.8330689990348930  0.6144638829825908
  0.0000000000000000  0.0000000000000000  0.0003166775124583
  0.0000000000000000  0.0000000000000000  0.5003166775124583
  0.5000000000000000  0.0000000000000000  0.0261762126204772
  0.0000000000000000  0.5000000000000000  0.5261762126204772
 
  0.00000000E+00  0.00000000E+00  0.00000000E+00
  0.00000000E+00  0.00000000E+00  0.00000000E+00
  0.00000000E+00  0.00000000E+00  0.00000000E+00
  0.00000000E+00  0.00000000E+00  0.00000000E+00
  0.00000000E+00  0.00000000E+00  0.00000000E+00
  0.00000000E+00  0.00000000E+00  0.00000000E+00
  0.00000000E+00  0.00000000E+00  0.00000000E+00
  0.00000000E+00  0.00000000E+00  0.00000000E+00
  0.00000000E+00  0.00000000E+00  0.00000000E+00
  0.00000000E+00  0.00000000E+00  0.00000000E+00
  0.00000000E+00  0.00000000E+00  0.00000000E+00
  0.00000000E+00  0.00000000E+00  0.00000000E+00
  0.00000000E+00  0.00000000E+00  0.00000000E+00
  0.00000000E+00  0.00000000E+00  0.00000000E+00
  0.00000000E+00  0.00000000E+00  0.00000000E+00
  0.00000000E+00  0.00000000E+00  0.00000000E+00
  0.00000000E+00  0.00000000E+00  0.00000000E+00
  0.00000000E+00  0.00000000E+00  0.00000000E+00
  0.00000000E+00  0.00000000E+00  0.00000000E+00
  0.00000000E+00  0.00000000E+00  0.00000000E+00
