Te Au Ag                                 15733
   1.00000000000000     
    -5.1009356280501557    5.1009356280501557    5.1009356280501557
     5.1009356280501557   -5.1009356280501557    5.1009356280501557
     5.1009356280501557    5.1009356280501557   -5.1009356280501557
   Te   Au   Ag
     8     4    12
Direct
  0.0000000000000000  0.9521327707985137  0.5000000000000000
  0.0000000000000000  0.5478672292014863  0.5000000000000000
  0.5478672292014863  0.5478672292014863  0.5478672292014863
  0.9521327707985137  0.9521327707985137  0.9521327707985137
  0.5000000000000000  0.0000000000000000  0.9521327707985137
  0.9521327707985137  0.5000000000000000  0.0000000000000000
  0.5000000000000000  0.0000000000000000  0.5478672292014863
  0.5478672292014863  0.5000000000000000  0.0000000000000000
  0.0000000000000000  0.2500000000000000  0.5000000000000000
  0.2500000000000000  0.2500000000000000  0.2500000000000000
  0.5000000000000000  0.0000000000000000  0.2500000000000000
  0.2500000000000000  0.5000000000000000  0.0000000000000000
  0.7500000000000000  0.8965580982759533  0.1465580982759533
  0.8965580982759533  0.2500000000000000  0.1465580982759533
  0.2500000000000000  0.6034419017240467  0.3534419017240467
  0.2500000000000000  0.1465580982759533  0.8965580982759533
  0.3534419017240467  0.2500000000000000  0.6034419017240467
  0.8965580982759533  0.1465580982759533  0.7500000000000000
  0.7500000000000000  0.3534419017240467  0.6034419017240467
  0.1465580982759533  0.7500000000000000  0.8965580982759533
  0.6034419017240467  0.3534419017240467  0.2500000000000000
  0.1465580982759533  0.8965580982759533  0.2500000000000000
  0.3534419017240467  0.6034419017240467  0.7500000000000000
  0.6034419017240467  0.7500000000000000  0.3534419017240467
 
  0.00000000E+00  0.00000000E+00  0.00000000E+00
  0.00000000E+00  0.00000000E+00  0.00000000E+00
  0.00000000E+00  0.00000000E+00  0.00000000E+00
  0.00000000E+00  0.00000000E+00  0.00000000E+00
  0.00000000E+00  0.00000000E+00  0.00000000E+00
  0.00000000E+00  0.00000000E+00  0.00000000E+00
  0.00000000E+00  0.00000000E+00  0.00000000E+00
  0.00000000E+00  0.00000000E+00  0.00000000E+00
  0.00000000E+00  0.00000000E+00  0.00000000E+00
  0.00000000E+00  0.00000000E+00  0.00000000E+00
  0.00000000E+00  0.00000000E+00  0.00000000E+00
  0.00000000E+00  0.00000000E+00  0.00000000E+00
  0.00000000E+00  0.00000000E+00  0.00000000E+00
  0.00000000E+00  0.00000000E+00  0.00000000E+00
  0.00000000E+00  0.00000000E+00  0.00000000E+00
  0.00000000E+00  0.00000000E+00  0.00000000E+00
  0.00000000E+00  0.00000000E+00  0.00000000E+00
  0.00000000E+00  0.00000000E+00  0.00000000E+00
  0.00000000E+00  0.00000000E+00  0.00000000E+00
  0.00000000E+00  0.00000000E+00  0.00000000E+00
  0.00000000E+00  0.00000000E+00  0.00000000E+00
  0.00000000E+00  0.00000000E+00  0.00000000E+00
  0.00000000E+00  0.00000000E+00  0.00000000E+00
  0.00000000E+00  0.00000000E+00  0.00000000E+00
