O Bi Ag                                  73122
   1.00000000000000     
    -7.0200791157367437    7.0200780564854668    4.3438781474822044
     7.0200791157367437   -7.0200780564854668    4.3438781474822044
     7.0200780564854668    7.0200791157367437   -4.3438781474822044
   O    Bi   Ag
    24     8    24
Direct
  0.3157022920267636  0.9739027719288273  0.2504085655053103
  0.8152937265214391  0.5657022920267636  0.8417995200979291
  0.7234942064235170  0.0652937265214391  0.7495914344946897
  0.7239027719288273  0.9734942064235170  0.1582004799020709
  0.1232913920690493  0.6789366658617126  0.3719021623590990
  0.5013892297099503  0.3732913920690493  0.9443547262073366
  0.3070345035026136  0.7513892297099503  0.6280978376409010
  0.4289366658617126  0.5570345035026136  0.0556452737926634
  0.8350064153490990  0.1987667341943222  0.4407219728247682
  0.1442844425243308  0.0850064153490990  0.1362396811547626
  0.7580447613695682  0.3942844425243308  0.5592780271752318
  0.9487667341943222  0.0080447613695682  0.8637603188452374
  0.3817922722944900  0.0057655963216519  0.8816515422754279
  0.2501407300190479  0.6317922722944900  0.8760266759728381
  0.1241140540462169  0.5001407300190479  0.1183484577245721
  0.7557655963216519  0.3741140540462169  0.1239733240271619
  0.8765000548399442  0.7611457202315179  0.6282290060631865
  0.9982710487767577  0.1265000548399442  0.6153543346084263
  0.1329167141683385  0.2482710487767577  0.3717709939368206
  0.5111457202315179  0.3829167141683385  0.3846456653915737
  0.4394311300943841  0.2001607372858061  0.6678933697809697
  0.5215377603134144  0.6894311300943841  0.7392703928085780
  0.5322673675048364  0.7715377603134144  0.3321066302190303
  0.9501607372858061  0.7822673675048364  0.2607296071914220
  0.7718634907748694  0.8988382581624990  0.6679567293171971
  0.8539067614576723  0.0218634907748694  0.3730252326123704
  0.2308815288453019  0.1039067614576723  0.3320432706828029
  0.6488382581624990  0.4808815288453019  0.6269747673876296
  0.6083135084617339  0.2841125036347094  0.8795362334738002
  0.4787772749879409  0.8583135084617339  0.8242010048270316
  0.4045762701609092  0.7287772749879409  0.1204637665261998
  0.0341125036347094  0.6545762701609092  0.1757989951729684
  0.9219938402025747  0.7634189151298898  0.4469993217134700
  0.2249945184891047  0.1719938402025676  0.6585749250726920
  0.3164195934164127  0.4749945184891047  0.5530006782865300
  0.5134189151298898  0.5664195934164127  0.3414250749273080
  0.2958860426118051  0.9370064568210168  0.5377326468732235
  0.5081533957385744  0.5458860426118051  0.8588795857907741
  0.3992738099478004  0.7581533957385744  0.4622673531267765
  0.6870064568210168  0.6492738099478004  0.1411204142092259
  0.1091737691276435  0.3824540908959833  0.7251061360727036
  0.1340676330549400  0.3591737691276435  0.2267196782316603
  0.6573479548232797  0.3840676330549400  0.2748938639272964
  0.1324540908959833  0.9073479548232797  0.7732803217683397
  0.5785080844411823  0.1023825084528696  0.3592017712042406
  0.9693063132369417  0.8285080844411823  0.9761255759883127
  0.7431807372486219  0.2193063132369417  0.6407982287957594
  0.8523825084528696  0.9931807372486219  0.0238744240116873
  0.3513300054661741  0.9890388382282183  0.0663604789697985
  0.0349695264963543  0.6013300054661741  0.8622911672379416
  0.9226783592584127  0.2849695264963543  0.9336395210302015
  0.7390388382282183  0.1726783592584127  0.1377088327620584
  0.9994949897415353  0.4287810880367999  0.3888582362540589
  0.3606367534874835  0.2494949897415353  0.0707139017047425
  0.0399228517827410  0.6106367534874835  0.6111417637459411
  0.1787810880367999  0.2899228517827410  0.9292860982952575
 
  0.00000000E+00  0.00000000E+00  0.00000000E+00
  0.00000000E+00  0.00000000E+00  0.00000000E+00
  0.00000000E+00  0.00000000E+00  0.00000000E+00
  0.00000000E+00  0.00000000E+00  0.00000000E+00
  0.00000000E+00  0.00000000E+00  0.00000000E+00
  0.00000000E+00  0.00000000E+00  0.00000000E+00
  0.00000000E+00  0.00000000E+00  0.00000000E+00
  0.00000000E+00  0.00000000E+00  0.00000000E+00
  0.00000000E+00  0.00000000E+00  0.00000000E+00
  0.00000000E+00  0.00000000E+00  0.00000000E+00
  0.00000000E+00  0.00000000E+00  0.00000000E+00
  0.00000000E+00  0.00000000E+00  0.00000000E+00
  0.00000000E+00  0.00000000E+00  0.00000000E+00
  0.00000000E+00  0.00000000E+00  0.00000000E+00
  0.00000000E+00  0.00000000E+00  0.00000000E+00
  0.00000000E+00  0.00000000E+00  0.00000000E+00
  0.00000000E+00  0.00000000E+00  0.00000000E+00
  0.00000000E+00  0.00000000E+00  0.00000000E+00
  0.00000000E+00  0.00000000E+00  0.00000000E+00
  0.00000000E+00  0.00000000E+00  0.00000000E+00
  0.00000000E+00  0.00000000E+00  0.00000000E+00
  0.00000000E+00  0.00000000E+00  0.00000000E+00
  0.00000000E+00  0.00000000E+00  0.00000000E+00
  0.00000000E+00  0.00000000E+00  0.00000000E+00
  0.00000000E+00  0.00000000E+00  0.00000000E+00
  0.00000000E+00  0.00000000E+00  0.00000000E+00
  0.00000000E+00  0.00000000E+00  0.00000000E+00
  0.00000000E+00  0.00000000E+00  0.00000000E+00
  0.00000000E+00  0.00000000E+00  0.00000000E+00
  0.00000000E+00  0.00000000E+00  0.00000000E+00
  0.00000000E+00  0.00000000E+00  0.00000000E+00
  0.00000000E+00  0.00000000E+00  0.00000000E+00
  0.00000000E+00  0.00000000E+00  0.00000000E+00
  0.00000000E+00  0.00000000E+00  0.00000000E+00
  0.00000000E+00  0.00000000E+00  0.00000000E+00
  0.00000000E+00  0.00000000E+00  0.00000000E+00
  0.00000000E+00  0.00000000E+00  0.00000000E+00
  0.00000000E+00  0.00000000E+00  0.00000000E+00
  0.00000000E+00  0.00000000E+00  0.00000000E+00
  0.00000000E+00  0.00000000E+00  0.00000000E+00
  0.00000000E+00  0.00000000E+00  0.00000000E+00
  0.00000000E+00  0.00000000E+00  0.00000000E+00
  0.00000000E+00  0.00000000E+00  0.00000000E+00
  0.00000000E+00  0.00000000E+00  0.00000000E+00
  0.00000000E+00  0.00000000E+00  0.00000000E+00
  0.00000000E+00  0.00000000E+00  0.00000000E+00
  0.00000000E+00  0.00000000E+00  0.00000000E+00
  0.00000000E+00  0.00000000E+00  0.00000000E+00
  0.00000000E+00  0.00000000E+00  0.00000000E+00
  0.00000000E+00  0.00000000E+00  0.00000000E+00
  0.00000000E+00  0.00000000E+00  0.00000000E+00
  0.00000000E+00  0.00000000E+00  0.00000000E+00
  0.00000000E+00  0.00000000E+00  0.00000000E+00
  0.00000000E+00  0.00000000E+00  0.00000000E+00
  0.00000000E+00  0.00000000E+00  0.00000000E+00
  0.00000000E+00  0.00000000E+00  0.00000000E+00
