Ir Zr                                    104611
   1.00000000000000     
     7.9054570977579717    0.0000000000000000    0.0000000000000000
    -3.9527285488789858    6.8463266751864031    0.0000000000000000
     0.0000000000000000    0.0000000000000000   17.2350076258694038
   Ir   Zr
    18    30
Direct
  0.6124845781337100  0.0000000000000000  0.0000000000000000
  0.3875154218662900  0.0000000000000000  0.5000000000000000
  0.0000000000000000  0.3875154218662900  0.8333333333333357
  0.0000000000000000  0.6124845781337100  0.3333333333333357
  0.3875154218662900  0.3875154218662900  0.6666666666666643
  0.6124845781337100  0.6124845781337100  0.1666666666666643
  0.4132501337314096  0.0180871709217172  0.1437917258528856
  0.6048370371903005  0.0180871709217172  0.3562082741471144
  0.9819128290782828  0.5867498662685904  0.6895416074804501
  0.0180871709217172  0.4132501337314096  0.1895416074804501
  0.9819128290782828  0.3951629628096995  0.4771250591862213
  0.0180871709217172  0.6048370371903005  0.9771250591862213
  0.5867498662685904  0.9819128290782828  0.6437917258528856
  0.5867498662685904  0.6048370371903005  0.5228749408137787
  0.3951629628096995  0.9819128290782828  0.8562082741471144
  0.4132501337314096  0.3951629628096995  0.0228749408137787
  0.6048370371903005  0.5867498662685904  0.8104583925195499
  0.3951629628096995  0.4132501337314096  0.3104583925195499
  0.2514265036815928  0.0000000000000000  0.0000000000000000
  0.7485734963184072  0.0000000000000000  0.5000000000000000
  0.0000000000000000  0.7485734963184072  0.8333333333333357
  0.0000000000000000  0.2514265036815928  0.3333333333333357
  0.7485734963184072  0.7485734963184072  0.6666666666666643
  0.2514265036815928  0.2514265036815928  0.1666666666666643
  0.3717821154490437  0.7435642308980874  0.2500000000000000
  0.2564357691019126  0.6282178845509563  0.5833333333333357
  0.7435642308980874  0.3717821154490437  0.0833333333333357
  0.6282178845509563  0.2564357691019126  0.7500000000000000
  0.6282178845509563  0.3717821154490437  0.4166666666666643
  0.3717821154490437  0.6282178845509563  0.9166666666666643
  0.6542232113695690  0.3084464227391379  0.2500000000000000
  0.6915535772608621  0.3457767886304310  0.5833333333333357
  0.3084464227391379  0.6542232113695690  0.0833333333333357
  0.3457767886304310  0.6915535772608621  0.7500000000000000
  0.3457767886304310  0.6542232113695690  0.4166666666666643
  0.6542232113695690  0.3457767886304310  0.9166666666666643
  0.2382564269222058  0.0069343581584107  0.3403712184448864
  0.7686779312361978  0.0069343581584107  0.1596287815551136
  0.9930656418415893  0.7617435730777942  0.4929621148884493
  0.0069343581584107  0.2382564269222058  0.9929621148884493
  0.9930656418415893  0.2313220687638022  0.6737045517782221
  0.0069343581584107  0.7686779312361978  0.1737045517782221
  0.7617435730777942  0.9930656418415893  0.8403712184448864
  0.7617435730777942  0.7686779312361978  0.3262954482217779
  0.2313220687638022  0.9930656418415893  0.6596287815551136
  0.2382564269222058  0.2313220687638022  0.8262954482217779
  0.7686779312361978  0.7617435730777942  0.0070378851115507
  0.2313220687638022  0.2382564269222058  0.5070378851115507
 
  0.00000000E+00  0.00000000E+00  0.00000000E+00
  0.00000000E+00  0.00000000E+00  0.00000000E+00
  0.00000000E+00  0.00000000E+00  0.00000000E+00
  0.00000000E+00  0.00000000E+00  0.00000000E+00
  0.00000000E+00  0.00000000E+00  0.00000000E+00
  0.00000000E+00  0.00000000E+00  0.00000000E+00
  0.00000000E+00  0.00000000E+00  0.00000000E+00
  0.00000000E+00  0.00000000E+00  0.00000000E+00
  0.00000000E+00  0.00000000E+00  0.00000000E+00
  0.00000000E+00  0.00000000E+00  0.00000000E+00
  0.00000000E+00  0.00000000E+00  0.00000000E+00
  0.00000000E+00  0.00000000E+00  0.00000000E+00
  0.00000000E+00  0.00000000E+00  0.00000000E+00
  0.00000000E+00  0.00000000E+00  0.00000000E+00
  0.00000000E+00  0.00000000E+00  0.00000000E+00
  0.00000000E+00  0.00000000E+00  0.00000000E+00
  0.00000000E+00  0.00000000E+00  0.00000000E+00
  0.00000000E+00  0.00000000E+00  0.00000000E+00
  0.00000000E+00  0.00000000E+00  0.00000000E+00
  0.00000000E+00  0.00000000E+00  0.00000000E+00
  0.00000000E+00  0.00000000E+00  0.00000000E+00
  0.00000000E+00  0.00000000E+00  0.00000000E+00
  0.00000000E+00  0.00000000E+00  0.00000000E+00
  0.00000000E+00  0.00000000E+00  0.00000000E+00
  0.00000000E+00  0.00000000E+00  0.00000000E+00
  0.00000000E+00  0.00000000E+00  0.00000000E+00
  0.00000000E+00  0.00000000E+00  0.00000000E+00
  0.00000000E+00  0.00000000E+00  0.00000000E+00
  0.00000000E+00  0.00000000E+00  0.00000000E+00
  0.00000000E+00  0.00000000E+00  0.00000000E+00
  0.00000000E+00  0.00000000E+00  0.00000000E+00
  0.00000000E+00  0.00000000E+00  0.00000000E+00
  0.00000000E+00  0.00000000E+00  0.00000000E+00
  0.00000000E+00  0.00000000E+00  0.00000000E+00
  0.00000000E+00  0.00000000E+00  0.00000000E+00
  0.00000000E+00  0.00000000E+00  0.00000000E+00
  0.00000000E+00  0.00000000E+00  0.00000000E+00
  0.00000000E+00  0.00000000E+00  0.00000000E+00
  0.00000000E+00  0.00000000E+00  0.00000000E+00
  0.00000000E+00  0.00000000E+00  0.00000000E+00
  0.00000000E+00  0.00000000E+00  0.00000000E+00
  0.00000000E+00  0.00000000E+00  0.00000000E+00
  0.00000000E+00  0.00000000E+00  0.00000000E+00
  0.00000000E+00  0.00000000E+00  0.00000000E+00
  0.00000000E+00  0.00000000E+00  0.00000000E+00
  0.00000000E+00  0.00000000E+00  0.00000000E+00
  0.00000000E+00  0.00000000E+00  0.00000000E+00
  0.00000000E+00  0.00000000E+00  0.00000000E+00
