Ca Si Al                                 100126
   1.00000000000000     
    -2.0324591831147152    2.2335666922990058    9.1808196422683590
     2.0324591831147152   -2.2335666922990058    9.1808196422683590
     2.0324591831147152    2.2335666922990058   -9.1808196422683590
   Ca   Si   Al
     3     2     2
Direct
  0.1865679197963885  0.1865679197963885  0.0000000000000000
  0.8134320802036115  0.8134320802036115  0.0000000000000000
  0.0000000000000000  0.5000000000000000  0.5000000000000000
  0.3554949345777842  0.3554949345777842  0.0000000000000000
  0.6445050654222158  0.6445050654222158  0.0000000000000000
  0.4312567085659111  0.9312567085659111  0.5000000000000000
  0.5687432914340889  0.0687432914340889  0.5000000000000000
 
  0.00000000E+00  0.00000000E+00  0.00000000E+00
  0.00000000E+00  0.00000000E+00  0.00000000E+00
  0.00000000E+00  0.00000000E+00  0.00000000E+00
  0.00000000E+00  0.00000000E+00  0.00000000E+00
  0.00000000E+00  0.00000000E+00  0.00000000E+00
  0.00000000E+00  0.00000000E+00  0.00000000E+00
  0.00000000E+00  0.00000000E+00  0.00000000E+00
