Mg O                                     181463
   1.00000000000000     
     9.6077534789400403    0.0000000000000000    0.0000000000000000
    -4.8038767394700201    8.3205585860603950    0.0000000000000000
     0.0000000000000000    0.0000000000000000    4.1413948483197718
   Mg   O 
    12    12
Direct
  0.1228849617512751  0.4547953772880504  0.0000000000000000
  0.5452046227119496  0.8771150382487249  0.5000000000000000
  0.6680895844632104  0.5452046227119496  0.5000000000000000
  0.8771150382487249  0.3319104155367896  0.5000000000000000
  0.4547953772880504  0.1228849617512751  0.5000000000000000
  0.5452046227119496  0.6680895844632104  0.0000000000000000
  0.3319104155367896  0.4547953772880504  0.5000000000000000
  0.6680895844632104  0.1228849617512751  0.0000000000000000
  0.4547953772880504  0.3319104155367896  0.0000000000000000
  0.3319104155367896  0.8771150382487249  0.0000000000000000
  0.8771150382487249  0.5452046227119496  0.0000000000000000
  0.1228849617512751  0.6680895844632104  0.5000000000000000
  0.1227428161133517  0.4519776294546176  0.5000000000000000
  0.5480223705453824  0.8772571838866483  0.0000000000000000
  0.6707651866587341  0.5480223705453824  0.0000000000000000
  0.8772571838866483  0.3292348133412659  0.0000000000000000
  0.4519776294546176  0.1227428161133517  0.0000000000000000
  0.5480223705453824  0.6707651866587341  0.5000000000000000
  0.3292348133412659  0.4519776294546176  0.0000000000000000
  0.6707651866587341  0.1227428161133517  0.5000000000000000
  0.4519776294546176  0.3292348133412659  0.5000000000000000
  0.3292348133412659  0.8772571838866483  0.5000000000000000
  0.8772571838866483  0.5480223705453824  0.5000000000000000
  0.1227428161133517  0.6707651866587341  0.0000000000000000
 
  0.00000000E+00  0.00000000E+00  0.00000000E+00
  0.00000000E+00  0.00000000E+00  0.00000000E+00
  0.00000000E+00  0.00000000E+00  0.00000000E+00
  0.00000000E+00  0.00000000E+00  0.00000000E+00
  0.00000000E+00  0.00000000E+00  0.00000000E+00
  0.00000000E+00  0.00000000E+00  0.00000000E+00
  0.00000000E+00  0.00000000E+00  0.00000000E+00
  0.00000000E+00  0.00000000E+00  0.00000000E+00
  0.00000000E+00  0.00000000E+00  0.00000000E+00
  0.00000000E+00  0.00000000E+00  0.00000000E+00
  0.00000000E+00  0.00000000E+00  0.00000000E+00
  0.00000000E+00  0.00000000E+00  0.00000000E+00
  0.00000000E+00  0.00000000E+00  0.00000000E+00
  0.00000000E+00  0.00000000E+00  0.00000000E+00
  0.00000000E+00  0.00000000E+00  0.00000000E+00
  0.00000000E+00  0.00000000E+00  0.00000000E+00
  0.00000000E+00  0.00000000E+00  0.00000000E+00
  0.00000000E+00  0.00000000E+00  0.00000000E+00
  0.00000000E+00  0.00000000E+00  0.00000000E+00
  0.00000000E+00  0.00000000E+00  0.00000000E+00
  0.00000000E+00  0.00000000E+00  0.00000000E+00
  0.00000000E+00  0.00000000E+00  0.00000000E+00
  0.00000000E+00  0.00000000E+00  0.00000000E+00
  0.00000000E+00  0.00000000E+00  0.00000000E+00
