Generated by vise. Mode: primitive_uniform, kpt density: 2.5, factor: 1. 
0
Gamma
7 7 7
