Generated by vise. Mode: manual_set, manual kpt setting. 
0
Gamma
1 1 1
