Mn1 O1
1.0
0.000000 2.123447 2.123447
2.123447 0.000000 2.123447
2.123447 2.123447 0.000000
Mn O
1 1
direct
0.000000 0.000000 0.000000 Mn
0.500000 0.500000 0.500000 O
