ALGO = D

PREC = A
LREAL = False
LASPH = True
ENCUT = 400
NELM = 100
NELMIN = 4
EDIFF = 1e-07

ISIF = 3
EDIFFG = -0.005
IBRION = 2
NSW = 20

ISMEAR = 0
SIGMA = 0.05

LWAVE = True
LCHARG = False

LORBIT = 12

LHFCALC = True
HFSCREEN = 0.2
PRECFOCK = F
TIME = 0.2

NPAR = 4
KPAR = 4

