# accuracy
PREC = A
LREAL = False
LASPH = True
ENCUT = 400.0
NELM = 100
NELMIN = 4
EDIFF = 1e-07

# ionic
ISIF = 0
IBRION = -1
NSW = 0

# occupation
ISMEAR = 0
SIGMA = 0.01

# magnetization
ISPIN = 2

# io_control
LWAVE = False
LCHARG = False

# analyzer
NBANDS = 318
LORBIT = 12
NEDOS = 3001
EMAX = 10
EMIN = -20

# dielectric
LRPA = False
LCALCEPS = True

# ldau
LDAU = True
LDAUTYPE = 2
LMAXMIX = 4
LDAUPRINT = 2
LDAUL =  -1   2  -1
LDAUU =   0   3   0
LDAUJ = 0.0 0.0 0.0

