# algo
ALGO = D

# accuracy
PREC = A
LREAL = False
LASPH = True
ENCUT = 400
NELM = 100
NELMIN = 4
EDIFF = 1e-07

# ionic
ISIF = 3
EDIFFG = -0.005
IBRION = 2
NSW = 20

# occupation
ISMEAR = 0
SIGMA = 0.05

# io_control
LWAVE = True
LCHARG = False

# analyzer
LORBIT = 12

# hybrid
LHFCALC = True
PRECFOCK = F
HFSCREEN = 0.2
TIME = 0.2

# parallel
NPAR = 4
KPAR = 4

