# algo
ALGO = N

# accuracy
PREC = A
LREAL = False
LASPH = True
ENCUT = 520.0
NELM = 100
NELMIN = 4
EDIFF = 1e-06

# ionic
ISIF = 3
EDIFFG = -0.005
IBRION = 2
NSW = 1

# occupation
ISMEAR = 0
SIGMA = 0.05

# io_control
LWAVE = True
LCHARG = False

# analysis
LORBIT = 12

# parallel
NPAR = 4
KPAR = 4

