ALGO = D
EDIFF = 1e-07
EDIFFG = -0.005
ENCUT = 400.0
HFSCREEN = 0.2
IBRION = 2
ISIF = 3
ISMEAR = 0
KPAR = 4
LASPH = True
LCHARG = False
LHFCALC = True
LORBIT = 12
LREAL = False
LWAVE = True
NELM = 100
NELMIN = 4
NPAR = 4
NSW = 20
PREC = A
PRECFOCK = F
SIGMA = 0.05
TIME = 0.2
