Generated by VISE. task: structure_opt, kpt density: 1.5
0
Gamma
4 4 2
0.0 0.0 0.5
