Generated by pydefect. Formula: MgO SG: 225
287
Reciprocal
0.0 0.0 0.0 1 None
0.125 0.0 0.0 8 None
0.25 0.0 0.0 8 None
0.375 0.0 0.0 8 None
0.5 0.0 0.0 4 None
0.125 0.125 0.0 6 None
0.25 0.125 0.0 24 None
0.375 0.125 0.0 24 None
0.5 0.125 0.0 24 None
-0.375 0.125 0.0 24 None
-0.25 0.125 0.0 24 None
-0.125 0.125 0.0 12 None
0.25 0.25 0.0 6 None
0.375 0.25 0.0 24 None
0.5 0.25 0.0 24 None
-0.375 0.25 0.0 24 None
-0.25 0.25 0.0 12 None
0.375 0.375 0.0 6 None
0.5 0.375 0.0 24 None
-0.375 0.375 0.0 12 None
0.5 0.5 0.0 3 None
0.375 0.25 0.125 24 None
0.5 0.25 0.125 48 None
-0.375 0.25 0.125 24 None
0.5 0.375 0.125 24 None
-0.375 0.375 0.125 48 None
-0.25 0.375 0.125 24 None
-0.375 0.5 0.125 12 None
-0.25 0.5 0.25 6 None
0.0 0.0 0.0 0 GAMMA
0.008620689655172414 0.0 0.008620689655172414 0 
0.017241379310344827 0.0 0.017241379310344827 0 
0.02586206896551724 0.0 0.02586206896551724 0 
0.034482758620689655 0.0 0.034482758620689655 0 
0.04310344827586207 0.0 0.04310344827586207 0 
0.05172413793103448 0.0 0.05172413793103448 0 
0.0603448275862069 0.0 0.0603448275862069 0 
0.06896551724137931 0.0 0.06896551724137931 0 
0.07758620689655173 0.0 0.07758620689655173 0 
0.08620689655172414 0.0 0.08620689655172414 0 
0.09482758620689655 0.0 0.09482758620689655 0 
0.10344827586206896 0.0 0.10344827586206896 0 
0.11206896551724138 0.0 0.11206896551724138 0 
0.1206896551724138 0.0 0.1206896551724138 0 
0.12931034482758622 0.0 0.12931034482758622 0 
0.13793103448275862 0.0 0.13793103448275862 0 
0.14655172413793102 0.0 0.14655172413793102 0 
0.15517241379310345 0.0 0.15517241379310345 0 
0.16379310344827586 0.0 0.16379310344827586 0 
0.1724137931034483 0.0 0.1724137931034483 0 
0.1810344827586207 0.0 0.1810344827586207 0 
0.1896551724137931 0.0 0.1896551724137931 0 
0.19827586206896552 0.0 0.19827586206896552 0 
0.20689655172413793 0.0 0.20689655172413793 0 
0.21551724137931033 0.0 0.21551724137931033 0 
0.22413793103448276 0.0 0.22413793103448276 0 
0.23275862068965517 0.0 0.23275862068965517 0 
0.2413793103448276 0.0 0.2413793103448276 0 
0.25 0.0 0.25 0 
0.25862068965517243 0.0 0.25862068965517243 0 
0.2672413793103448 0.0 0.2672413793103448 0 
0.27586206896551724 0.0 0.27586206896551724 0 
0.28448275862068967 0.0 0.28448275862068967 0 
0.29310344827586204 0.0 0.29310344827586204 0 
0.3017241379310345 0.0 0.3017241379310345 0 
0.3103448275862069 0.0 0.3103448275862069 0 
0.31896551724137934 0.0 0.31896551724137934 0 
0.3275862068965517 0.0 0.3275862068965517 0 
0.33620689655172414 0.0 0.33620689655172414 0 
0.3448275862068966 0.0 0.3448275862068966 0 
0.35344827586206895 0.0 0.35344827586206895 0 
0.3620689655172414 0.0 0.3620689655172414 0 
0.3706896551724138 0.0 0.3706896551724138 0 
0.3793103448275862 0.0 0.3793103448275862 0 
0.3879310344827586 0.0 0.3879310344827586 0 
0.39655172413793105 0.0 0.39655172413793105 0 
0.4051724137931034 0.0 0.4051724137931034 0 
0.41379310344827586 0.0 0.41379310344827586 0 
0.4224137931034483 0.0 0.4224137931034483 0 
0.43103448275862066 0.0 0.43103448275862066 0 
0.4396551724137931 0.0 0.4396551724137931 0 
0.4482758620689655 0.0 0.4482758620689655 0 
0.45689655172413796 0.0 0.45689655172413796 0 
0.46551724137931033 0.0 0.46551724137931033 0 
0.47413793103448276 0.0 0.47413793103448276 0 
0.4827586206896552 0.0 0.4827586206896552 0 
0.49137931034482757 0.0 0.49137931034482757 0 
0.5 0.0 0.5 0 X
0.506578947368421 0.013157894736842105 0.506578947368421 0 
0.5131578947368421 0.02631578947368421 0.5131578947368421 0 
0.5197368421052632 0.039473684210526314 0.5197368421052632 0 
0.5263157894736842 0.05263157894736842 0.5263157894736842 0 
0.5328947368421053 0.06578947368421052 0.5328947368421053 0 
0.5394736842105263 0.07894736842105263 0.5394736842105263 0 
0.5460526315789473 0.09210526315789473 0.5460526315789473 0 
0.5526315789473684 0.10526315789473684 0.5526315789473684 0 
0.5592105263157895 0.11842105263157894 0.5592105263157895 0 
0.5657894736842105 0.13157894736842105 0.5657894736842105 0 
0.5723684210526316 0.14473684210526316 0.5723684210526316 0 
0.5789473684210527 0.15789473684210525 0.5789473684210527 0 
0.5855263157894737 0.17105263157894737 0.5855263157894737 0 
0.5921052631578947 0.18421052631578946 0.5921052631578947 0 
0.5986842105263158 0.19736842105263158 0.5986842105263158 0 
0.6052631578947368 0.21052631578947367 0.6052631578947368 0 
0.6118421052631579 0.2236842105263158 0.6118421052631579 0 
0.618421052631579 0.23684210526315788 0.618421052631579 0 
0.625 0.25 0.625 0 U
0.375 0.375 0.75 0 K
0.36885245901639346 0.36885245901639346 0.7377049180327869 0 
0.36270491803278687 0.36270491803278687 0.7254098360655737 0 
0.35655737704918034 0.35655737704918034 0.7131147540983607 0 
0.35040983606557374 0.35040983606557374 0.7008196721311475 0 
0.3442622950819672 0.3442622950819672 0.6885245901639344 0 
0.33811475409836067 0.33811475409836067 0.6762295081967213 0 
0.3319672131147541 0.3319672131147541 0.6639344262295082 0 
0.32581967213114754 0.32581967213114754 0.6516393442622951 0 
0.319672131147541 0.319672131147541 0.639344262295082 0 
0.3135245901639344 0.3135245901639344 0.6270491803278688 0 
0.3073770491803279 0.3073770491803279 0.6147540983606558 0 
0.30122950819672134 0.30122950819672134 0.6024590163934427 0 
0.29508196721311475 0.29508196721311475 0.5901639344262295 0 
0.2889344262295082 0.2889344262295082 0.5778688524590164 0 
0.2827868852459016 0.2827868852459016 0.5655737704918032 0 
0.2766393442622951 0.2766393442622951 0.5532786885245902 0 
0.2704918032786885 0.2704918032786885 0.540983606557377 0 
0.26434426229508196 0.26434426229508196 0.5286885245901639 0 
0.2581967213114754 0.2581967213114754 0.5163934426229508 0 
0.2520491803278688 0.2520491803278688 0.5040983606557377 0 
0.2459016393442623 0.2459016393442623 0.4918032786885246 0 
0.23975409836065573 0.23975409836065573 0.47950819672131145 0 
0.2336065573770492 0.2336065573770492 0.4672131147540984 0 
0.22745901639344263 0.22745901639344263 0.45491803278688525 0 
0.22131147540983606 0.22131147540983606 0.4426229508196721 0 
0.2151639344262295 0.2151639344262295 0.430327868852459 0 
0.20901639344262296 0.20901639344262296 0.4180327868852459 0 
0.2028688524590164 0.2028688524590164 0.4057377049180328 0 
0.19672131147540983 0.19672131147540983 0.39344262295081966 0 
0.19057377049180327 0.19057377049180327 0.38114754098360654 0 
0.18442622950819673 0.18442622950819673 0.36885245901639346 0 
0.17827868852459017 0.17827868852459017 0.35655737704918034 0 
0.1721311475409836 0.1721311475409836 0.3442622950819672 0 
0.16598360655737704 0.16598360655737704 0.3319672131147541 0 
0.1598360655737705 0.1598360655737705 0.319672131147541 0 
0.15368852459016394 0.15368852459016394 0.3073770491803279 0 
0.14754098360655737 0.14754098360655737 0.29508196721311475 0 
0.1413934426229508 0.1413934426229508 0.2827868852459016 0 
0.13524590163934427 0.13524590163934427 0.27049180327868855 0 
0.1290983606557377 0.1290983606557377 0.2581967213114754 0 
0.12295081967213117 0.12295081967213117 0.24590163934426235 0 
0.11680327868852458 0.11680327868852458 0.23360655737704916 0 
0.11065573770491804 0.11065573770491804 0.2213114754098361 0 
0.10450819672131145 0.10450819672131145 0.2090163934426229 0 
0.09836065573770492 0.09836065573770492 0.19672131147540983 0 
0.09221311475409838 0.09221311475409838 0.18442622950819676 0 
0.08606557377049179 0.08606557377049179 0.17213114754098358 0 
0.07991803278688525 0.07991803278688525 0.1598360655737705 0 
0.07377049180327871 0.07377049180327871 0.14754098360655743 0 
0.06762295081967212 0.06762295081967212 0.13524590163934425 0 
0.061475409836065587 0.061475409836065587 0.12295081967213117 0 
0.055327868852458995 0.055327868852458995 0.11065573770491799 0 
0.04918032786885246 0.04918032786885246 0.09836065573770492 0 
0.04303278688524592 0.04303278688524592 0.08606557377049184 0 
0.03688524590163933 0.03688524590163933 0.07377049180327866 0 
0.030737704918032793 0.030737704918032793 0.061475409836065587 0 
0.024590163934426257 0.024590163934426257 0.049180327868852514 0 
0.018442622950819665 0.018442622950819665 0.03688524590163933 0 
0.012295081967213128 0.012295081967213128 0.024590163934426257 0 
0.0061475409836065364 0.0061475409836065364 0.012295081967213073 0 
0.0 0.0 0.0 0 GAMMA
0.01 0.01 0.01 0 
0.02 0.02 0.02 0 
0.03 0.03 0.03 0 
0.04 0.04 0.04 0 
0.05 0.05 0.05 0 
0.06 0.06 0.06 0 
0.07 0.07 0.07 0 
0.08 0.08 0.08 0 
0.09 0.09 0.09 0 
0.1 0.1 0.1 0 
0.11 0.11 0.11 0 
0.12 0.12 0.12 0 
0.13 0.13 0.13 0 
0.14 0.14 0.14 0 
0.15 0.15 0.15 0 
0.16 0.16 0.16 0 
0.17 0.17 0.17 0 
0.18 0.18 0.18 0 
0.19 0.19 0.19 0 
0.2 0.2 0.2 0 
0.21 0.21 0.21 0 
0.22 0.22 0.22 0 
0.23 0.23 0.23 0 
0.24 0.24 0.24 0 
0.25 0.25 0.25 0 
0.26 0.26 0.26 0 
0.27 0.27 0.27 0 
0.28 0.28 0.28 0 
0.29 0.29 0.29 0 
0.3 0.3 0.3 0 
0.31 0.31 0.31 0 
0.32 0.32 0.32 0 
0.33 0.33 0.33 0 
0.34 0.34 0.34 0 
0.35 0.35 0.35 0 
0.36 0.36 0.36 0 
0.37 0.37 0.37 0 
0.38 0.38 0.38 0 
0.39 0.39 0.39 0 
0.4 0.4 0.4 0 
0.41 0.41 0.41 0 
0.42 0.42 0.42 0 
0.43 0.43 0.43 0 
0.44 0.44 0.44 0 
0.45 0.45 0.45 0 
0.46 0.46 0.46 0 
0.47 0.47 0.47 0 
0.48 0.48 0.48 0 
0.49 0.49 0.49 0 
0.5 0.5 0.5 0 L
0.5 0.49375 0.50625 0 
0.5 0.4875 0.5125 0 
0.5 0.48125 0.51875 0 
0.5 0.475 0.525 0 
0.5 0.46875 0.53125 0 
0.5 0.4625 0.5375 0 
0.5 0.45625 0.54375 0 
0.5 0.45 0.55 0 
0.5 0.44375 0.55625 0 
0.5 0.4375 0.5625 0 
0.5 0.43125 0.56875 0 
0.5 0.425 0.575 0 
0.5 0.41875 0.58125 0 
0.5 0.4125 0.5875 0 
0.5 0.40625 0.59375 0 
0.5 0.4 0.6 0 
0.5 0.39375 0.60625 0 
0.5 0.3875 0.6125 0 
0.5 0.38125 0.61875 0 
0.5 0.375 0.625 0 
0.5 0.36875 0.63125 0 
0.5 0.3625 0.6375 0 
0.5 0.35625 0.64375 0 
0.5 0.35 0.65 0 
0.5 0.34375 0.65625 0 
0.5 0.3375 0.6625 0 
0.5 0.33125 0.66875 0 
0.5 0.325 0.675 0 
0.5 0.31875 0.68125 0 
0.5 0.3125 0.6875 0 
0.5 0.30625 0.69375 0 
0.5 0.3 0.7 0 
0.5 0.29375 0.70625 0 
0.5 0.2875 0.7125 0 
0.5 0.28125 0.71875 0 
0.5 0.275 0.725 0 
0.5 0.26875 0.73125 0 
0.5 0.2625 0.7375 0 
0.5 0.25625 0.74375 0 
0.5 0.25 0.75 0 W
0.5 0.24107142857142858 0.7410714285714286 0 
0.5 0.23214285714285715 0.7321428571428571 0 
0.5 0.22321428571428573 0.7232142857142857 0 
0.5 0.2142857142857143 0.7142857142857143 0 
0.5 0.20535714285714285 0.7053571428571429 0 
0.5 0.19642857142857142 0.6964285714285714 0 
0.5 0.1875 0.6875 0 
0.5 0.17857142857142858 0.6785714285714286 0 
0.5 0.16964285714285715 0.6696428571428571 0 
0.5 0.1607142857142857 0.6607142857142857 0 
0.5 0.1517857142857143 0.6517857142857143 0 
0.5 0.14285714285714285 0.6428571428571429 0 
0.5 0.13392857142857142 0.6339285714285714 0 
0.5 0.125 0.625 0 
0.5 0.11607142857142858 0.6160714285714286 0 
0.5 0.10714285714285715 0.6071428571428572 0 
0.5 0.09821428571428573 0.5982142857142857 0 
0.5 0.08928571428571427 0.5892857142857143 0 
0.5 0.08035714285714285 0.5803571428571428 0 
0.5 0.07142857142857142 0.5714285714285714 0 
0.5 0.0625 0.5625 0 
0.5 0.053571428571428575 0.5535714285714286 0 
0.5 0.04464285714285715 0.5446428571428572 0 
0.5 0.035714285714285726 0.5357142857142857 0 
0.5 0.026785714285714274 0.5267857142857143 0 
0.5 0.01785714285714285 0.5178571428571428 0 
0.5 0.008928571428571425 0.5089285714285714 0 
0.5 0.0 0.5 0 X
