Generated by VISE. task: dos, kpt density: 1.5, factor: 2
0
Gamma
10 10 10
