Generated by VISE. task: competing_phase, kpt density: 1.5, factor: 2
0
Gamma
16 16 10
0.0 0.0 0.5
