Generated by VISE. Formula: YMnO3 SG: 185
188
Reciprocal
0.0 0.0 0.0 1 None
0.125 0.0 0.0 8 None
0.25 0.0 0.0 8 None
0.375 0.0 0.0 8 None
0.5 0.0 0.0 4 None
0.125 0.125 0.0 6 None
0.25 0.125 0.0 24 None
0.375 0.125 0.0 24 None
0.5 0.125 0.0 24 None
-0.375 0.125 0.0 24 None
-0.25 0.125 0.0 24 None
-0.125 0.125 0.0 12 None
0.25 0.25 0.0 6 None
0.375 0.25 0.0 24 None
0.5 0.25 0.0 24 None
-0.375 0.25 0.0 24 None
-0.25 0.25 0.0 12 None
0.375 0.375 0.0 6 None
0.5 0.375 0.0 24 None
-0.375 0.375 0.0 12 None
0.5 0.5 0.0 3 None
0.375 0.25 0.125 24 None
0.5 0.25 0.125 48 None
-0.375 0.25 0.125 24 None
0.5 0.375 0.125 24 None
-0.375 0.375 0.125 48 None
-0.25 0.375 0.125 24 None
-0.375 0.5 0.125 12 None
-0.25 0.5 0.25 6 None
0.0 0.0 0.0 0 GAMMA
0.021739130434782608 0.0 0.0 0 
0.043478260869565216 0.0 0.0 0 
0.06521739130434782 0.0 0.0 0 
0.08695652173913043 0.0 0.0 0 
0.10869565217391304 0.0 0.0 0 
0.13043478260869565 0.0 0.0 0 
0.15217391304347827 0.0 0.0 0 
0.17391304347826086 0.0 0.0 0 
0.1956521739130435 0.0 0.0 0 
0.21739130434782608 0.0 0.0 0 
0.2391304347826087 0.0 0.0 0 
0.2608695652173913 0.0 0.0 0 
0.2826086956521739 0.0 0.0 0 
0.30434782608695654 0.0 0.0 0 
0.32608695652173914 0.0 0.0 0 
0.34782608695652173 0.0 0.0 0 
0.3695652173913043 0.0 0.0 0 
0.391304347826087 0.0 0.0 0 
0.41304347826086957 0.0 0.0 0 
0.43478260869565216 0.0 0.0 0 
0.45652173913043476 0.0 0.0 0 
0.4782608695652174 0.0 0.0 0 
0.5 0.0 0.0 0 M
0.48717948717948717 0.02564102564102564 0.0 0 
0.47435897435897434 0.05128205128205128 0.0 0 
0.46153846153846156 0.07692307692307693 0.0 0 
0.44871794871794873 0.10256410256410256 0.0 0 
0.4358974358974359 0.1282051282051282 0.0 0 
0.4230769230769231 0.15384615384615385 0.0 0 
0.41025641025641024 0.17948717948717946 0.0 0 
0.3974358974358974 0.20512820512820512 0.0 0 
0.3846153846153846 0.23076923076923078 0.0 0 
0.3717948717948718 0.2564102564102564 0.0 0 
0.358974358974359 0.28205128205128205 0.0 0 
0.34615384615384615 0.3076923076923077 0.0 0 
0.3333333333333333 0.3333333333333333 0.0 0 K
0.32098765432098764 0.32098765432098764 0.0 0 
0.30864197530864196 0.30864197530864196 0.0 0 
0.2962962962962963 0.2962962962962963 0.0 0 
0.2839506172839506 0.2839506172839506 0.0 0 
0.2716049382716049 0.2716049382716049 0.0 0 
0.25925925925925924 0.25925925925925924 0.0 0 
0.24691358024691357 0.24691358024691357 0.0 0 
0.2345679012345679 0.2345679012345679 0.0 0 
0.2222222222222222 0.2222222222222222 0.0 0 
0.20987654320987653 0.20987654320987653 0.0 0 
0.19753086419753085 0.19753086419753085 0.0 0 
0.18518518518518517 0.18518518518518517 0.0 0 
0.1728395061728395 0.1728395061728395 0.0 0 
0.16049382716049382 0.16049382716049382 0.0 0 
0.14814814814814814 0.14814814814814814 0.0 0 
0.13580246913580246 0.13580246913580246 0.0 0 
0.12345679012345678 0.12345679012345678 0.0 0 
0.1111111111111111 0.1111111111111111 0.0 0 
0.09876543209876543 0.09876543209876543 0.0 0 
0.08641975308641975 0.08641975308641975 0.0 0 
0.07407407407407407 0.07407407407407407 0.0 0 
0.06172839506172839 0.06172839506172839 0.0 0 
0.04938271604938271 0.04938271604938271 0.0 0 
0.037037037037037035 0.037037037037037035 0.0 0 
0.024691358024691357 0.024691358024691357 0.0 0 
0.012345679012345678 0.012345679012345678 0.0 0 
0.0 0.0 0.0 0 GAMMA
0.0 0.0 0.05 0 
0.0 0.0 0.1 0 
0.0 0.0 0.15 0 
0.0 0.0 0.2 0 
0.0 0.0 0.25 0 
0.0 0.0 0.3 0 
0.0 0.0 0.35 0 
0.0 0.0 0.4 0 
0.0 0.0 0.45 0 
0.0 0.0 0.5 0 A
0.021739130434782608 0.0 0.5 0 
0.043478260869565216 0.0 0.5 0 
0.06521739130434782 0.0 0.5 0 
0.08695652173913043 0.0 0.5 0 
0.10869565217391304 0.0 0.5 0 
0.13043478260869565 0.0 0.5 0 
0.15217391304347827 0.0 0.5 0 
0.17391304347826086 0.0 0.5 0 
0.1956521739130435 0.0 0.5 0 
0.21739130434782608 0.0 0.5 0 
0.2391304347826087 0.0 0.5 0 
0.2608695652173913 0.0 0.5 0 
0.2826086956521739 0.0 0.5 0 
0.30434782608695654 0.0 0.5 0 
0.32608695652173914 0.0 0.5 0 
0.34782608695652173 0.0 0.5 0 
0.3695652173913043 0.0 0.5 0 
0.391304347826087 0.0 0.5 0 
0.41304347826086957 0.0 0.5 0 
0.43478260869565216 0.0 0.5 0 
0.45652173913043476 0.0 0.5 0 
0.4782608695652174 0.0 0.5 0 
0.5 0.0 0.5 0 L
0.48717948717948717 0.02564102564102564 0.5 0 
0.47435897435897434 0.05128205128205128 0.5 0 
0.46153846153846156 0.07692307692307693 0.5 0 
0.44871794871794873 0.10256410256410256 0.5 0 
0.4358974358974359 0.1282051282051282 0.5 0 
0.4230769230769231 0.15384615384615385 0.5 0 
0.41025641025641024 0.17948717948717946 0.5 0 
0.3974358974358974 0.20512820512820512 0.5 0 
0.3846153846153846 0.23076923076923078 0.5 0 
0.3717948717948718 0.2564102564102564 0.5 0 
0.358974358974359 0.28205128205128205 0.5 0 
0.34615384615384615 0.3076923076923077 0.5 0 
0.3333333333333333 0.3333333333333333 0.5 0 H
0.32098765432098764 0.32098765432098764 0.5 0 
0.30864197530864196 0.30864197530864196 0.5 0 
0.2962962962962963 0.2962962962962963 0.5 0 
0.2839506172839506 0.2839506172839506 0.5 0 
0.2716049382716049 0.2716049382716049 0.5 0 
0.25925925925925924 0.25925925925925924 0.5 0 
0.24691358024691357 0.24691358024691357 0.5 0 
0.2345679012345679 0.2345679012345679 0.5 0 
0.2222222222222222 0.2222222222222222 0.5 0 
0.20987654320987653 0.20987654320987653 0.5 0 
0.19753086419753085 0.19753086419753085 0.5 0 
0.18518518518518517 0.18518518518518517 0.5 0 
0.1728395061728395 0.1728395061728395 0.5 0 
0.16049382716049382 0.16049382716049382 0.5 0 
0.14814814814814814 0.14814814814814814 0.5 0 
0.13580246913580246 0.13580246913580246 0.5 0 
0.12345679012345678 0.12345679012345678 0.5 0 
0.1111111111111111 0.1111111111111111 0.5 0 
0.09876543209876543 0.09876543209876543 0.5 0 
0.08641975308641975 0.08641975308641975 0.5 0 
0.07407407407407407 0.07407407407407407 0.5 0 
0.06172839506172839 0.06172839506172839 0.5 0 
0.04938271604938271 0.04938271604938271 0.5 0 
0.037037037037037035 0.037037037037037035 0.5 0 
0.024691358024691357 0.024691358024691357 0.5 0 
0.012345679012345678 0.012345679012345678 0.5 0 
0.0 0.0 0.5 0 A
0.5 0.0 0.5 0 L
0.5 0.0 0.45 0 
0.5 0.0 0.4 0 
0.5 0.0 0.35 0 
0.5 0.0 0.3 0 
0.5 0.0 0.25 0 
0.5 0.0 0.2 0 
0.5 0.0 0.15000000000000002 0 
0.5 0.0 0.09999999999999998 0 
0.5 0.0 0.04999999999999999 0 
0.5 0.0 0.0 0 M
0.3333333333333333 0.3333333333333333 0.5 0 H
0.3333333333333333 0.3333333333333333 0.45 0 
0.3333333333333333 0.3333333333333333 0.4 0 
0.3333333333333333 0.3333333333333333 0.35 0 
0.3333333333333333 0.3333333333333333 0.3 0 
0.3333333333333333 0.3333333333333333 0.25 0 
0.3333333333333333 0.3333333333333333 0.2 0 
0.3333333333333333 0.3333333333333333 0.15000000000000002 0 
0.3333333333333333 0.3333333333333333 0.09999999999999998 0 
0.3333333333333333 0.3333333333333333 0.04999999999999999 0 
0.3333333333333333 0.3333333333333333 0.0 0 K
