Generated by VISE. task: competing_phase_molecule, Gamma-only for a cluster.
0
Gamma
1 1 1
