Generated by VISE. Formula: MgO SG: 225
158
Reciprocal
0.0 0.0 0.0 1 None
0.125 0.0 0.0 8 None
0.25 0.0 0.0 8 None
0.375 0.0 0.0 8 None
0.5 0.0 0.0 4 None
0.125 0.125 0.0 6 None
0.25 0.125 0.0 24 None
0.375 0.125 0.0 24 None
0.5 0.125 0.0 24 None
-0.375 0.125 0.0 24 None
-0.25 0.125 0.0 24 None
-0.125 0.125 0.0 12 None
0.25 0.25 0.0 6 None
0.375 0.25 0.0 24 None
0.5 0.25 0.0 24 None
-0.375 0.25 0.0 24 None
-0.25 0.25 0.0 12 None
0.375 0.375 0.0 6 None
0.5 0.375 0.0 24 None
-0.375 0.375 0.0 12 None
0.5 0.5 0.0 3 None
0.375 0.25 0.125 24 None
0.5 0.25 0.125 48 None
-0.375 0.25 0.125 24 None
0.5 0.375 0.125 24 None
-0.375 0.375 0.125 48 None
-0.25 0.375 0.125 24 None
-0.375 0.5 0.125 12 None
-0.25 0.5 0.25 6 None
0.0 0.0 0.0 0 GAMMA
0.008620689655172414 0.0 0.008620689655172414 0 
0.017241379310344827 0.0 0.017241379310344827 0 
0.02586206896551724 0.0 0.02586206896551724 0 
0.034482758620689655 0.0 0.034482758620689655 0 
0.04310344827586207 0.0 0.04310344827586207 0 
0.05172413793103448 0.0 0.05172413793103448 0 
0.0603448275862069 0.0 0.0603448275862069 0 
0.06896551724137931 0.0 0.06896551724137931 0 
0.07758620689655173 0.0 0.07758620689655173 0 
0.08620689655172414 0.0 0.08620689655172414 0 
0.09482758620689655 0.0 0.09482758620689655 0 
0.10344827586206896 0.0 0.10344827586206896 0 
0.11206896551724138 0.0 0.11206896551724138 0 
0.1206896551724138 0.0 0.1206896551724138 0 
0.12931034482758622 0.0 0.12931034482758622 0 
0.13793103448275862 0.0 0.13793103448275862 0 
0.14655172413793102 0.0 0.14655172413793102 0 
0.15517241379310345 0.0 0.15517241379310345 0 
0.16379310344827586 0.0 0.16379310344827586 0 
0.1724137931034483 0.0 0.1724137931034483 0 
0.1810344827586207 0.0 0.1810344827586207 0 
0.1896551724137931 0.0 0.1896551724137931 0 
0.19827586206896552 0.0 0.19827586206896552 0 
0.20689655172413793 0.0 0.20689655172413793 0 
0.21551724137931033 0.0 0.21551724137931033 0 
0.22413793103448276 0.0 0.22413793103448276 0 
0.23275862068965517 0.0 0.23275862068965517 0 
0.2413793103448276 0.0 0.2413793103448276 0 
0.25 0.0 0.25 0 
0.25862068965517243 0.0 0.25862068965517243 0 
0.2672413793103448 0.0 0.2672413793103448 0 
0.27586206896551724 0.0 0.27586206896551724 0 
0.28448275862068967 0.0 0.28448275862068967 0 
0.29310344827586204 0.0 0.29310344827586204 0 
0.3017241379310345 0.0 0.3017241379310345 0 
0.3103448275862069 0.0 0.3103448275862069 0 
0.31896551724137934 0.0 0.31896551724137934 0 
0.3275862068965517 0.0 0.3275862068965517 0 
0.33620689655172414 0.0 0.33620689655172414 0 
0.3448275862068966 0.0 0.3448275862068966 0 
0.35344827586206895 0.0 0.35344827586206895 0 
0.3620689655172414 0.0 0.3620689655172414 0 
0.3706896551724138 0.0 0.3706896551724138 0 
0.3793103448275862 0.0 0.3793103448275862 0 
0.3879310344827586 0.0 0.3879310344827586 0 
0.39655172413793105 0.0 0.39655172413793105 0 
0.4051724137931034 0.0 0.4051724137931034 0 
0.41379310344827586 0.0 0.41379310344827586 0 
0.4224137931034483 0.0 0.4224137931034483 0 
0.43103448275862066 0.0 0.43103448275862066 0 
0.4396551724137931 0.0 0.4396551724137931 0 
0.4482758620689655 0.0 0.4482758620689655 0 
0.45689655172413796 0.0 0.45689655172413796 0 
0.46551724137931033 0.0 0.46551724137931033 0 
0.47413793103448276 0.0 0.47413793103448276 0 
0.4827586206896552 0.0 0.4827586206896552 0 
0.49137931034482757 0.0 0.49137931034482757 0 
0.5 0.0 0.5 0 X
0.506578947368421 0.013157894736842105 0.506578947368421 0 
0.5131578947368421 0.02631578947368421 0.5131578947368421 0 
0.5197368421052632 0.039473684210526314 0.5197368421052632 0 
0.5263157894736842 0.05263157894736842 0.5263157894736842 0 
0.5328947368421053 0.06578947368421052 0.5328947368421053 0 
0.5394736842105263 0.07894736842105263 0.5394736842105263 0 
0.5460526315789473 0.09210526315789473 0.5460526315789473 0 
0.5526315789473684 0.10526315789473684 0.5526315789473684 0 
0.5592105263157895 0.11842105263157894 0.5592105263157895 0 
0.5657894736842105 0.13157894736842105 0.5657894736842105 0 
0.5723684210526316 0.14473684210526316 0.5723684210526316 0 
0.5789473684210527 0.15789473684210525 0.5789473684210527 0 
0.5855263157894737 0.17105263157894737 0.5855263157894737 0 
0.5921052631578947 0.18421052631578946 0.5921052631578947 0 
0.5986842105263158 0.19736842105263158 0.5986842105263158 0 
0.6052631578947368 0.21052631578947367 0.6052631578947368 0 
0.6118421052631579 0.2236842105263158 0.6118421052631579 0 
0.618421052631579 0.23684210526315788 0.618421052631579 0 
0.625 0.25 0.625 0 U
0.375 0.375 0.75 0 K
0.36885245901639346 0.36885245901639346 0.7377049180327869 0 
0.36270491803278687 0.36270491803278687 0.7254098360655737 0 
0.35655737704918034 0.35655737704918034 0.7131147540983607 0 
0.35040983606557374 0.35040983606557374 0.7008196721311475 0 
0.3442622950819672 0.3442622950819672 0.6885245901639344 0 
0.33811475409836067 0.33811475409836067 0.6762295081967213 0 
0.3319672131147541 0.3319672131147541 0.6639344262295082 0 
0.32581967213114754 0.32581967213114754 0.6516393442622951 0 
0.319672131147541 0.319672131147541 0.639344262295082 0 
0.3135245901639344 0.3135245901639344 0.6270491803278688 0 
0.3073770491803279 0.3073770491803279 0.6147540983606558 0 
0.30122950819672134 0.30122950819672134 0.6024590163934427 0 
0.29508196721311475 0.29508196721311475 0.5901639344262295 0 
0.2889344262295082 0.2889344262295082 0.5778688524590164 0 
0.2827868852459016 0.2827868852459016 0.5655737704918032 0 
0.2766393442622951 0.2766393442622951 0.5532786885245902 0 
0.2704918032786885 0.2704918032786885 0.540983606557377 0 
0.26434426229508196 0.26434426229508196 0.5286885245901639 0 
0.2581967213114754 0.2581967213114754 0.5163934426229508 0 
0.2520491803278688 0.2520491803278688 0.5040983606557377 0 
0.2459016393442623 0.2459016393442623 0.4918032786885246 0 
0.23975409836065573 0.23975409836065573 0.47950819672131145 0 
0.2336065573770492 0.2336065573770492 0.4672131147540984 0 
0.22745901639344263 0.22745901639344263 0.45491803278688525 0 
0.22131147540983606 0.22131147540983606 0.4426229508196721 0 
0.2151639344262295 0.2151639344262295 0.430327868852459 0 
0.20901639344262296 0.20901639344262296 0.4180327868852459 0 
0.2028688524590164 0.2028688524590164 0.4057377049180328 0 
0.19672131147540983 0.19672131147540983 0.39344262295081966 0 
0.19057377049180327 0.19057377049180327 0.38114754098360654 0 
0.18442622950819673 0.18442622950819673 0.36885245901639346 0 
0.17827868852459017 0.17827868852459017 0.35655737704918034 0 
0.1721311475409836 0.1721311475409836 0.3442622950819672 0 
0.16598360655737704 0.16598360655737704 0.3319672131147541 0 
0.1598360655737705 0.1598360655737705 0.319672131147541 0 
0.15368852459016394 0.15368852459016394 0.3073770491803279 0 
0.14754098360655737 0.14754098360655737 0.29508196721311475 0 
0.1413934426229508 0.1413934426229508 0.2827868852459016 0 
0.13524590163934427 0.13524590163934427 0.27049180327868855 0 
0.1290983606557377 0.1290983606557377 0.2581967213114754 0 
0.12295081967213117 0.12295081967213117 0.24590163934426235 0 
0.11680327868852458 0.11680327868852458 0.23360655737704916 0 
0.11065573770491804 0.11065573770491804 0.2213114754098361 0 
0.10450819672131145 0.10450819672131145 0.2090163934426229 0 
0.09836065573770492 0.09836065573770492 0.19672131147540983 0 
0.09221311475409838 0.09221311475409838 0.18442622950819676 0 
0.08606557377049179 0.08606557377049179 0.17213114754098358 0 
0.07991803278688525 0.07991803278688525 0.1598360655737705 0 
0.07377049180327871 0.07377049180327871 0.14754098360655743 0 
0.06762295081967212 0.06762295081967212 0.13524590163934425 0 
