P4                                      
   1.00000000000000     
    10.0000000000000000    0.0000000000000000    0.0000000000000000
     0.0000000000000000   10.0000000000000000    0.0000000000000000
     0.0000000000000000    0.0000000000000000   10.0000000000000000
   P 
     4
Direct
  0.5769835900587736  0.5769835900587736  0.5769835900587736
  0.5769835900587736  0.4230164099412264  0.4230164099412264
  0.4230164099412264  0.5769835900587736  0.4230164099412264
  0.4230164099412264  0.4230164099412264  0.5769835900587736
 
  0.00000000E+00  0.00000000E+00  0.00000000E+00
  0.00000000E+00  0.00000000E+00  0.00000000E+00
  0.00000000E+00  0.00000000E+00  0.00000000E+00
  0.00000000E+00  0.00000000E+00  0.00000000E+00
