Be B H                                   10315
   1.00000000000000     
    -6.7017157813745367    6.7017157813745367    4.3554345885361663
     6.7017157813745367   -6.7017157813745367    4.3554345885361663
     6.7017157813745367    6.7017157813745367   -4.3554345885361663
   Be   B    H 
     8    16    64
Direct
  0.0878747708448060  0.2011925838605180  0.2875995573742713
  0.5502752134705275  0.3378747708448060  0.3866821869842951
  0.0502752134705275  0.6635930264862537  0.2124004426257287
  0.4135930264862537  0.7011925838605180  0.1133178130157049
  0.5878747708448060  0.3002752134705275  0.8866821869842951
  0.9135930264862537  0.8002752134705275  0.7124004426257287
  0.9511925838605109  0.1635930264862537  0.6133178130157049
  0.4511925838605180  0.8378747708448060  0.7875995573742713
  0.9591609320927645  0.1728890135432835  0.1138503532558843
  0.5953105788368802  0.2091609320927645  0.2862719185494882
  0.0953105788368802  0.8090386602873920  0.3861496467441157
  0.5590386602873920  0.6728890135432835  0.2137280814505118
  0.4591609320927645  0.3453105788368802  0.7862719185494882
  0.0590386602873920  0.8453105788368802  0.8861496467441157
  0.9228890135432835  0.3090386602873920  0.7137280814505118
  0.4228890135432835  0.7091609320927645  0.6138503532558843
  0.3149150716913169  0.2615310878284873  0.3335839799916656
  0.7313310916996514  0.5649150716913169  0.5533839838628296
  0.2313310916996514  0.6779471078368289  0.1664160200083344
  0.4279471078368289  0.7615310878284873  0.9466160161371704
  0.8149150716913169  0.4813310916996514  0.0533839838628296
  0.9279471078368289  0.9813310916996514  0.6664160200083344
  0.0115310878284873  0.1779471078368289  0.4466160161371704
  0.5115310878284873  0.0649150716913169  0.8335839799916656
  0.9860504759368354  0.1540890760055191  0.0072243562910117
  0.7288261196458308  0.2360504759368354  0.3319613999313091
  0.2288261196458308  0.8968647197145216  0.4927756437089883
  0.6468647197145216  0.6540890760055191  0.1680386000686909
  0.4860504759368354  0.4788261196458308  0.8319613999313091
  0.1468647197145216  0.9788261196458308  0.9927756437089883
  0.9040890760055191  0.3968647197145216  0.6680386000686909
  0.4040890760055191  0.7360504759368354  0.5072243562910117
  0.8440325368575046  0.1747998812420661  0.1108511336260420
  0.4831814032314554  0.0940325368575046  0.1692326556154242
  0.9831814032314554  0.8139487476160312  0.3891488663739580
  0.5639487476160312  0.6747998812420661  0.3307673443845758
  0.3440325368575046  0.2331814032314554  0.6692326556154242
  0.0639487476160312  0.7331814032314554  0.8891488663739580
  0.9247998812420661  0.3139487476160312  0.8307673443845758
  0.4247998812420661  0.5940325368575046  0.6108511336260420
  0.1093947527025492  0.3222673680568917  0.2075272901708729
  0.6518674625316692  0.3593947527025492  0.2871273846456575
  0.1518674625316692  0.8647400778860188  0.2924727098291271
  0.6147400778860188  0.8222673680568917  0.2128726153543425
  0.6093947527025492  0.4018674625316692  0.7871273846456575
  0.1147400778860188  0.9018674625316692  0.7924727098291271
  0.0722673680568917  0.3647400778860188  0.7128726153543425
  0.5722673680568917  0.8593947527025492  0.7075272901708729
  0.9151340584970313  0.0441331384569921  0.1505232968118975
  0.5146107616851339  0.1651340584970313  0.3710009200400393
  0.0146107616851410  0.6436098416451017  0.3494767031881025
  0.3936098416451017  0.5441331384569921  0.1289990799599607
  0.4151340584970313  0.2646107616851410  0.8710009200400393
  0.8936098416451017  0.7646107616851339  0.8494767031881025
  0.7941331384569921  0.1436098416450946  0.6289990799599607
  0.2941331384569921  0.6651340584970313  0.6505232968118975
  0.1670972841418390  0.1092488549596595  0.2509325426036000
  0.6661647415382319  0.4170972841418390  0.5578484291821795
  0.1661647415382319  0.6083163123560595  0.2490674573964000
  0.3583163123560595  0.6092488549596595  0.9421515708178205
  0.6670972841418390  0.4161647415382319  0.0578484291821795
  0.8583163123560595  0.9161647415382319  0.7490674573964000
  0.8592488549596595  0.1083163123560595  0.4421515708178205
  0.3592488549596595  0.9170972841418390  0.7509325426036000
  0.3119952965116681  0.3750991785333539  0.3840657935775411
  0.6779295029341270  0.5619952965116610  0.4368961179783213
  0.1779295029341270  0.7410333849558128  0.1159342064224589
  0.4910333849558128  0.8750991785333611  0.0631038820216787
  0.8119952965116610  0.4279295029341270  0.9368961179783213
  0.9910333849558128  0.9279295029341270  0.6159342064224589
  0.1250991785333539  0.2410333849558128  0.5631038820216787
  0.6250991785333611  0.0619952965116681  0.8840657935775411
  0.3691214454154164  0.2393091264163303  0.4337063282828453
  0.6854151171325782  0.6191214454154164  0.6298123189990790
  0.1854151171325782  0.5556027981334850  0.0662936717171547
  0.3056027981334850  0.7393091264163303  0.8701876810009210
  0.8691214454154164  0.4354151171325782  0.1298123189990790
  0.8056027981334850  0.9354151171325782  0.5662936717171547
  0.9893091264163303  0.0556027981334850  0.3701876810009210
  0.4893091264163303  0.1191214454154164  0.9337063282828453
  0.4116958420277115  0.3230760346930381  0.2648431783300111
  0.8968526636976932  0.6616958420277115  0.5886198073346662
  0.3968526636976932  0.8082328563630270  0.2351568216699889
  0.5582328563630270  0.8230760346930381  0.9113801926653338
  0.9116958420277115  0.6468526636976932  0.0886198073346662
  0.0582328563630270  0.1468526636976932  0.7351568216699889
  0.0730760346930381  0.3082328563630270  0.4113801926653338
  0.5730760346930381  0.1616958420277115  0.7648431783300111
 
  0.00000000E+00  0.00000000E+00  0.00000000E+00
  0.00000000E+00  0.00000000E+00  0.00000000E+00
  0.00000000E+00  0.00000000E+00  0.00000000E+00
  0.00000000E+00  0.00000000E+00  0.00000000E+00
  0.00000000E+00  0.00000000E+00  0.00000000E+00
  0.00000000E+00  0.00000000E+00  0.00000000E+00
  0.00000000E+00  0.00000000E+00  0.00000000E+00
  0.00000000E+00  0.00000000E+00  0.00000000E+00
  0.00000000E+00  0.00000000E+00  0.00000000E+00
  0.00000000E+00  0.00000000E+00  0.00000000E+00
  0.00000000E+00  0.00000000E+00  0.00000000E+00
  0.00000000E+00  0.00000000E+00  0.00000000E+00
  0.00000000E+00  0.00000000E+00  0.00000000E+00
  0.00000000E+00  0.00000000E+00  0.00000000E+00
  0.00000000E+00  0.00000000E+00  0.00000000E+00
  0.00000000E+00  0.00000000E+00  0.00000000E+00
  0.00000000E+00  0.00000000E+00  0.00000000E+00
  0.00000000E+00  0.00000000E+00  0.00000000E+00
  0.00000000E+00  0.00000000E+00  0.00000000E+00
  0.00000000E+00  0.00000000E+00  0.00000000E+00
  0.00000000E+00  0.00000000E+00  0.00000000E+00
  0.00000000E+00  0.00000000E+00  0.00000000E+00
  0.00000000E+00  0.00000000E+00  0.00000000E+00
  0.00000000E+00  0.00000000E+00  0.00000000E+00
  0.00000000E+00  0.00000000E+00  0.00000000E+00
  0.00000000E+00  0.00000000E+00  0.00000000E+00
  0.00000000E+00  0.00000000E+00  0.00000000E+00
  0.00000000E+00  0.00000000E+00  0.00000000E+00
  0.00000000E+00  0.00000000E+00  0.00000000E+00
  0.00000000E+00  0.00000000E+00  0.00000000E+00
  0.00000000E+00  0.00000000E+00  0.00000000E+00
  0.00000000E+00  0.00000000E+00  0.00000000E+00
  0.00000000E+00  0.00000000E+00  0.00000000E+00
  0.00000000E+00  0.00000000E+00  0.00000000E+00
  0.00000000E+00  0.00000000E+00  0.00000000E+00
  0.00000000E+00  0.00000000E+00  0.00000000E+00
  0.00000000E+00  0.00000000E+00  0.00000000E+00
  0.00000000E+00  0.00000000E+00  0.00000000E+00
  0.00000000E+00  0.00000000E+00  0.00000000E+00
  0.00000000E+00  0.00000000E+00  0.00000000E+00
  0.00000000E+00  0.00000000E+00  0.00000000E+00
  0.00000000E+00  0.00000000E+00  0.00000000E+00
  0.00000000E+00  0.00000000E+00  0.00000000E+00
  0.00000000E+00  0.00000000E+00  0.00000000E+00
  0.00000000E+00  0.00000000E+00  0.00000000E+00
  0.00000000E+00  0.00000000E+00  0.00000000E+00
  0.00000000E+00  0.00000000E+00  0.00000000E+00
  0.00000000E+00  0.00000000E+00  0.00000000E+00
  0.00000000E+00  0.00000000E+00  0.00000000E+00
  0.00000000E+00  0.00000000E+00  0.00000000E+00
  0.00000000E+00  0.00000000E+00  0.00000000E+00
  0.00000000E+00  0.00000000E+00  0.00000000E+00
  0.00000000E+00  0.00000000E+00  0.00000000E+00
  0.00000000E+00  0.00000000E+00  0.00000000E+00
  0.00000000E+00  0.00000000E+00  0.00000000E+00
  0.00000000E+00  0.00000000E+00  0.00000000E+00
  0.00000000E+00  0.00000000E+00  0.00000000E+00
  0.00000000E+00  0.00000000E+00  0.00000000E+00
  0.00000000E+00  0.00000000E+00  0.00000000E+00
  0.00000000E+00  0.00000000E+00  0.00000000E+00
  0.00000000E+00  0.00000000E+00  0.00000000E+00
  0.00000000E+00  0.00000000E+00  0.00000000E+00
  0.00000000E+00  0.00000000E+00  0.00000000E+00
  0.00000000E+00  0.00000000E+00  0.00000000E+00
  0.00000000E+00  0.00000000E+00  0.00000000E+00
  0.00000000E+00  0.00000000E+00  0.00000000E+00
  0.00000000E+00  0.00000000E+00  0.00000000E+00
  0.00000000E+00  0.00000000E+00  0.00000000E+00
  0.00000000E+00  0.00000000E+00  0.00000000E+00
  0.00000000E+00  0.00000000E+00  0.00000000E+00
  0.00000000E+00  0.00000000E+00  0.00000000E+00
  0.00000000E+00  0.00000000E+00  0.00000000E+00
  0.00000000E+00  0.00000000E+00  0.00000000E+00
  0.00000000E+00  0.00000000E+00  0.00000000E+00
  0.00000000E+00  0.00000000E+00  0.00000000E+00
  0.00000000E+00  0.00000000E+00  0.00000000E+00
  0.00000000E+00  0.00000000E+00  0.00000000E+00
  0.00000000E+00  0.00000000E+00  0.00000000E+00
  0.00000000E+00  0.00000000E+00  0.00000000E+00
  0.00000000E+00  0.00000000E+00  0.00000000E+00
  0.00000000E+00  0.00000000E+00  0.00000000E+00
  0.00000000E+00  0.00000000E+00  0.00000000E+00
  0.00000000E+00  0.00000000E+00  0.00000000E+00
  0.00000000E+00  0.00000000E+00  0.00000000E+00
  0.00000000E+00  0.00000000E+00  0.00000000E+00
  0.00000000E+00  0.00000000E+00  0.00000000E+00
  0.00000000E+00  0.00000000E+00  0.00000000E+00
  0.00000000E+00  0.00000000E+00  0.00000000E+00
