Sr As                                    100110
   1.00000000000000     
     0.0000000000000000    8.8830754309119708    2.9689630779438159
     7.3846379222882392    0.0000000000000000    2.9689630779438159
     7.3846379222882392    8.8830754309119708    0.0000000000000000
   Sr   As
     6     8
Direct
  0.7476818512297427  0.7476818512297427  0.2523181487702573
  0.9976818512297427  0.9976818512297427  0.5023181487702573
  0.6913700738521342  0.3615691397771670  0.1428547838230827
  0.4457939974523839  0.1071452161769244  0.8884308602228330
  0.3615691397771670  0.6913700738521342  0.8042060025476161
  0.1071452161769244  0.4457939974523839  0.5586299261478658
  0.7639308016031023  0.2744468798537341  0.3963514809753264
  0.6847291624321628  0.8536485190246736  0.9755531201462730
  0.2744468798537341  0.7639308016031023  0.5652708375678372
  0.8536485190246736  0.6847291624321628  0.4860691983968977
  0.1625179285533065  0.3292833251308309  0.8435690569023677
  0.5853703105864980  0.4064309430976323  0.9207166748691691
  0.3292833251308309  0.1625179285533065  0.6646296894135020
  0.4064309430976323  0.5853703105864980  0.0874820714466935
 
  0.00000000E+00  0.00000000E+00  0.00000000E+00
  0.00000000E+00  0.00000000E+00  0.00000000E+00
  0.00000000E+00  0.00000000E+00  0.00000000E+00
  0.00000000E+00  0.00000000E+00  0.00000000E+00
  0.00000000E+00  0.00000000E+00  0.00000000E+00
  0.00000000E+00  0.00000000E+00  0.00000000E+00
  0.00000000E+00  0.00000000E+00  0.00000000E+00
  0.00000000E+00  0.00000000E+00  0.00000000E+00
  0.00000000E+00  0.00000000E+00  0.00000000E+00
  0.00000000E+00  0.00000000E+00  0.00000000E+00
  0.00000000E+00  0.00000000E+00  0.00000000E+00
  0.00000000E+00  0.00000000E+00  0.00000000E+00
  0.00000000E+00  0.00000000E+00  0.00000000E+00
  0.00000000E+00  0.00000000E+00  0.00000000E+00
