Sb Co O Ag                               174288
   1.00000000000000     
     5.3456535703416383    0.0000000000000000    0.0000000000000000
    -2.6728267851708192    4.6294717917468438    0.0000000000000000
     0.0000000000000000    0.0000000000000000   18.5432158145114343
   Sb   Co   O    Ag
     3     6    18     9
Direct
  0.1071816239976542  0.2143632479953155  0.6666666666666643
  0.7856367520046845  0.8928183760023458  0.0000000000000000
  0.1071816239976542  0.8928183760023458  0.3333333333333357
  0.7739350012276631  0.5478700024553120  0.6666666666666643
  0.4521299975446880  0.2260649987723369  0.0000000000000000
  0.7739350012276631  0.2260649987723369  0.3333333333333357
  0.4405085590835114  0.8810171181670370  0.6666666666666643
  0.1189828818329559  0.5594914409164886  0.0000000000000000
  0.4405085590835114  0.5594914409164886  0.3333333333333357
  0.1077484784134057  0.5374817646878611  0.6109606663784177
  0.4297332862744483  0.5374817646878611  0.7223726669549180
  0.4625182353121389  0.8922515215865943  0.0557060002882466
  0.4297332862744483  0.8922515215865943  0.2776273330450820
  0.4625182353121389  0.5702667137255517  0.9442939997117534
  0.1077484784134057  0.5702667137255517  0.3890393336215823
  0.7839097700437350  0.8909670771017417  0.6110733324471411
  0.1070573070580068  0.8909670771017417  0.7222600008861875
  0.1090329228982583  0.2160902299562650  0.0555933342195232
  0.1070573070580068  0.2160902299562650  0.2777399991138125
  0.1090329228982583  0.8929426929419932  0.9444066657804768
  0.7839097700437350  0.8929426929419932  0.3889266675528589
  0.4301449097876073  0.2144308678858096  0.6110580766529807
  0.7842859580982022  0.2144308678858096  0.7222752566803550
  0.7855691321141904  0.5698550902123927  0.0556085900136907
  0.7842859580982022  0.5698550902123927  0.2777247433196379
  0.7855691321141904  0.2157140419017978  0.9443914099863093
  0.4301449097876073  0.2157140419017978  0.3889419233470264
  0.4436866568587803  0.5563133431412197  0.8333333333333357
  0.1126266862824394  0.5563133431412197  0.5000000000000000
  0.4436866568587803  0.8873733137175606  0.1666666666666643
  0.1090790155170041  0.8909209844829959  0.8333333333333357
  0.7818419689659777  0.8909209844829959  0.5000000000000000
  0.1090790155170041  0.2181580310340223  0.1666666666666643
  0.7854344411345835  0.2145655588654165  0.8333333333333357
  0.4291311177308259  0.2145655588654165  0.5000000000000000
  0.7854344411345835  0.5708688822691741  0.1666666666666643
 
  0.00000000E+00  0.00000000E+00  0.00000000E+00
  0.00000000E+00  0.00000000E+00  0.00000000E+00
  0.00000000E+00  0.00000000E+00  0.00000000E+00
  0.00000000E+00  0.00000000E+00  0.00000000E+00
  0.00000000E+00  0.00000000E+00  0.00000000E+00
  0.00000000E+00  0.00000000E+00  0.00000000E+00
  0.00000000E+00  0.00000000E+00  0.00000000E+00
  0.00000000E+00  0.00000000E+00  0.00000000E+00
  0.00000000E+00  0.00000000E+00  0.00000000E+00
  0.00000000E+00  0.00000000E+00  0.00000000E+00
  0.00000000E+00  0.00000000E+00  0.00000000E+00
  0.00000000E+00  0.00000000E+00  0.00000000E+00
  0.00000000E+00  0.00000000E+00  0.00000000E+00
  0.00000000E+00  0.00000000E+00  0.00000000E+00
  0.00000000E+00  0.00000000E+00  0.00000000E+00
  0.00000000E+00  0.00000000E+00  0.00000000E+00
  0.00000000E+00  0.00000000E+00  0.00000000E+00
  0.00000000E+00  0.00000000E+00  0.00000000E+00
  0.00000000E+00  0.00000000E+00  0.00000000E+00
  0.00000000E+00  0.00000000E+00  0.00000000E+00
  0.00000000E+00  0.00000000E+00  0.00000000E+00
  0.00000000E+00  0.00000000E+00  0.00000000E+00
  0.00000000E+00  0.00000000E+00  0.00000000E+00
  0.00000000E+00  0.00000000E+00  0.00000000E+00
  0.00000000E+00  0.00000000E+00  0.00000000E+00
  0.00000000E+00  0.00000000E+00  0.00000000E+00
  0.00000000E+00  0.00000000E+00  0.00000000E+00
  0.00000000E+00  0.00000000E+00  0.00000000E+00
  0.00000000E+00  0.00000000E+00  0.00000000E+00
  0.00000000E+00  0.00000000E+00  0.00000000E+00
  0.00000000E+00  0.00000000E+00  0.00000000E+00
  0.00000000E+00  0.00000000E+00  0.00000000E+00
  0.00000000E+00  0.00000000E+00  0.00000000E+00
  0.00000000E+00  0.00000000E+00  0.00000000E+00
  0.00000000E+00  0.00000000E+00  0.00000000E+00
  0.00000000E+00  0.00000000E+00  0.00000000E+00
