K Ge Ba O                                100203
   1.00000000000000     
     4.2114423768718909   -6.2269735172754181    0.0004189422165745
     4.2114423768718909    6.2269735172754181    0.0004189422165745
    -0.1211032352764734    0.0000000000000000   11.4778941189977814
   K    Ge   Ba   O 
     8     6     2    18
Direct
  0.0542730612695763  0.9457269387304237  0.0000000000000000
  0.5688397631734503  0.4311602368265497  0.0000000000000000
  0.5900678895789824  0.4099321104210176  0.5000000000000000
  0.9929426103529266  0.0070573896470734  0.5000000000000000
  0.4209324181074194  0.6898852268274922  0.2547385582382518
  0.3101147731725078  0.5790675818925806  0.7452614417617482
  0.2916148638139546  0.1555622971034509  0.2511303838668510
  0.8444377028965491  0.7083851361860454  0.7488696161331490
  0.1014344091387258  0.5056727725009011  0.0323733692060344
  0.4943272274990989  0.8985655908612742  0.9676266307939727
  0.0897732115452641  0.5135181867208658  0.4757409396003922
  0.4864818132791342  0.9102267884547359  0.5242590603996078
  0.8877167884041981  0.6661396767367265  0.2589805242648069
  0.3338603232632735  0.1122832115958019  0.7410194757351931
  0.8012544292899193  0.1835065300384358  0.2268585858652585
  0.8164934699615642  0.1987455707100807  0.7731414141347486
  0.3526188878814978  0.6473811121185022  0.0000000000000000
  0.3468922996231711  0.6531077003768289  0.5000000000000000
  0.0650316076294075  0.6333486807437581  0.1619037260559253
  0.3666513192562419  0.9349683923705925  0.8380962739440747
  0.9863053622322298  0.6718320522134320  0.4057800050709659
  0.3281679477865680  0.0136946377677702  0.5942199949290341
  0.6624093791016108  0.4759854155524579  0.2482743879401070
  0.5240145844475421  0.3375906208983892  0.7517256120598930
  0.8980447292261289  0.8990387667303565  0.2380965791573857
  0.1009612332696435  0.1019552707738711  0.7619034208426143
  0.1059636644883071  0.2872135719177251  0.0799957387818822
  0.7127864280822749  0.8940363355116929  0.9200042612181178
  0.0919571072880387  0.3302540132959209  0.3812709634789329
  0.6697459867040720  0.9080428927119613  0.6187290365210671
  0.4886687957335170  0.0535705604594625  0.0811676977413143
  0.9464294395405375  0.5113312042664830  0.9188323022586857
  0.5427673540124829  0.0286808810494321  0.3899221534572774
  0.9713191189505608  0.4572326459875171  0.6100778465427226
 
  0.00000000E+00  0.00000000E+00  0.00000000E+00
  0.00000000E+00  0.00000000E+00  0.00000000E+00
  0.00000000E+00  0.00000000E+00  0.00000000E+00
  0.00000000E+00  0.00000000E+00  0.00000000E+00
  0.00000000E+00  0.00000000E+00  0.00000000E+00
  0.00000000E+00  0.00000000E+00  0.00000000E+00
  0.00000000E+00  0.00000000E+00  0.00000000E+00
  0.00000000E+00  0.00000000E+00  0.00000000E+00
  0.00000000E+00  0.00000000E+00  0.00000000E+00
  0.00000000E+00  0.00000000E+00  0.00000000E+00
  0.00000000E+00  0.00000000E+00  0.00000000E+00
  0.00000000E+00  0.00000000E+00  0.00000000E+00
  0.00000000E+00  0.00000000E+00  0.00000000E+00
  0.00000000E+00  0.00000000E+00  0.00000000E+00
  0.00000000E+00  0.00000000E+00  0.00000000E+00
  0.00000000E+00  0.00000000E+00  0.00000000E+00
  0.00000000E+00  0.00000000E+00  0.00000000E+00
  0.00000000E+00  0.00000000E+00  0.00000000E+00
  0.00000000E+00  0.00000000E+00  0.00000000E+00
  0.00000000E+00  0.00000000E+00  0.00000000E+00
  0.00000000E+00  0.00000000E+00  0.00000000E+00
  0.00000000E+00  0.00000000E+00  0.00000000E+00
  0.00000000E+00  0.00000000E+00  0.00000000E+00
  0.00000000E+00  0.00000000E+00  0.00000000E+00
  0.00000000E+00  0.00000000E+00  0.00000000E+00
  0.00000000E+00  0.00000000E+00  0.00000000E+00
  0.00000000E+00  0.00000000E+00  0.00000000E+00
  0.00000000E+00  0.00000000E+00  0.00000000E+00
  0.00000000E+00  0.00000000E+00  0.00000000E+00
  0.00000000E+00  0.00000000E+00  0.00000000E+00
  0.00000000E+00  0.00000000E+00  0.00000000E+00
  0.00000000E+00  0.00000000E+00  0.00000000E+00
  0.00000000E+00  0.00000000E+00  0.00000000E+00
  0.00000000E+00  0.00000000E+00  0.00000000E+00
