O Se V                                   2354
   1.00000000000000     
    11.3236665078752736    0.0000000000000000    0.0000000000000000
     0.0000000000000000   11.3236665078752736    0.0000000000000000
     0.0000000000000000    0.0000000000000000    7.5803572009510596
   O    Se   V 
    48    16     8
Direct
  0.0000000000000000  0.0000000000000000  0.3878643449452994
  0.0000000000000000  0.0000000000000000  0.8878643449452994
  0.5000000000000000  0.5000000000000000  0.2065981610779133
  0.5000000000000000  0.5000000000000000  0.7065981610779133
  0.0000000000000000  0.5000000000000000  0.3894358083063381
  0.5000000000000000  0.0000000000000000  0.8894358083063381
  0.0000000000000000  0.5000000000000000  0.8894358083063381
  0.5000000000000000  0.0000000000000000  0.3894358083063381
  0.1253665556171200  0.1210140834619935  0.1329595561922758
  0.8789859165380065  0.8746334443828800  0.6329595561922758
  0.1253665556171200  0.8789859165380065  0.6329595561922758
  0.1210140834619935  0.8746334443828800  0.1329595561922758
  0.8746334443828800  0.1210140834619935  0.6329595561922758
  0.1210140834619935  0.1253665556171200  0.6329595561922758
  0.8746334443828800  0.8789859165380065  0.1329595561922758
  0.8789859165380065  0.1253665556171200  0.1329595561922758
  0.2552219466201322  0.2562558503660100  0.4326712118808729
  0.7437441496339900  0.7447780533798749  0.9326712118808729
  0.2552219466201322  0.7437441496339900  0.9326712118808729
  0.2562558503660100  0.7447780533798749  0.4326712118808729
  0.7447780533798749  0.2562558503660100  0.9326712118808729
  0.2562558503660100  0.2552219466201322  0.9326712118808729
  0.7447780533798749  0.7437441496339900  0.4326712118808729
  0.7437441496339900  0.2552219466201322  0.4326712118808729
  0.0929500906403149  0.3505848694559006  0.1468040093925254
  0.6494151305440994  0.9070499093596851  0.6468040093925254
  0.0929500906403149  0.6494151305440994  0.6468040093925254
  0.3505848694559006  0.9070499093596851  0.1468040093925254
  0.9070499093596851  0.3505848694559006  0.6468040093925254
  0.3505848694559006  0.0929500906403149  0.6468040093925254
  0.9070499093596851  0.6494151305440994  0.1468040093925254
  0.6494151305440994  0.0929500906403149  0.1468040093925254
  0.3261983196575358  0.4778865328308655  0.4619653254469966
  0.5221134671691345  0.6738016803424642  0.9619653254469966
  0.3261983196575358  0.5221134671691345  0.9619653254469966
  0.4778865328308655  0.6738016803424642  0.4619653254469966
  0.6738016803424642  0.4778865328308655  0.9619653254469966
  0.4778865328308655  0.3261983196575358  0.9619653254469966
  0.6738016803424642  0.5221134671691345  0.4619653254469966
  0.5221134671691345  0.3261983196575358  0.4619653254469966
  0.4031399972058125  0.1436289489551825  0.1561684824049863
  0.8563710510448175  0.5968600027941875  0.6561684824049863
  0.4031399972058125  0.8563710510448175  0.6561684824049863
  0.1436289489551825  0.5968600027941875  0.1561684824049863
  0.5968600027941875  0.1436289489551825  0.6561684824049863
  0.1436289489551825  0.4031399972058125  0.6561684824049863
  0.5968600027941875  0.8563710510448175  0.1561684824049863
  0.8563710510448175  0.4031399972058125  0.1561684824049863
  0.1026179679592829  0.2404548093827543  0.9965134276703438
  0.7595451906172457  0.8973820320407171  0.4965134276703438
  0.1026179679592829  0.7595451906172457  0.4965134276703438
  0.2404548093827543  0.8973820320407171  0.9965134276703438
  0.8973820320407171  0.2404548093827543  0.4965134276703438
  0.2404548093827543  0.1026179679592829  0.4965134276703438
  0.8973820320407171  0.7595451906172457  0.9965134276703438
  0.7595451906172457  0.1026179679592829  0.9965134276703438
  0.3689268139627018  0.2830154222159038  0.1066591275488094
  0.7169845777840962  0.6310731860372982  0.6066591275488094
  0.3689268139627018  0.7169845777840962  0.6066591275488094
  0.2830154222159038  0.6310731860372982  0.1066591275488094
  0.6310731860372982  0.2830154222159038  0.6066591275488094
  0.2830154222159038  0.3689268139627018  0.6066591275488094
  0.6310731860372982  0.7169845777840962  0.1066591275488094
  0.7169845777840962  0.3689268139627018  0.1066591275488094
  0.0000000000000000  0.0000000000000000  0.1636036081256549
  0.0000000000000000  0.0000000000000000  0.6636036081256549
  0.5000000000000000  0.5000000000000000  0.4319360044242799
  0.5000000000000000  0.5000000000000000  0.9319360044242799
  0.0000000000000000  0.5000000000000000  0.1099308513335089
  0.5000000000000000  0.0000000000000000  0.6099308513335089
  0.0000000000000000  0.5000000000000000  0.6099308513335089
  0.5000000000000000  0.0000000000000000  0.1099308513335089
 
  0.00000000E+00  0.00000000E+00  0.00000000E+00
  0.00000000E+00  0.00000000E+00  0.00000000E+00
  0.00000000E+00  0.00000000E+00  0.00000000E+00
  0.00000000E+00  0.00000000E+00  0.00000000E+00
  0.00000000E+00  0.00000000E+00  0.00000000E+00
  0.00000000E+00  0.00000000E+00  0.00000000E+00
  0.00000000E+00  0.00000000E+00  0.00000000E+00
  0.00000000E+00  0.00000000E+00  0.00000000E+00
  0.00000000E+00  0.00000000E+00  0.00000000E+00
  0.00000000E+00  0.00000000E+00  0.00000000E+00
  0.00000000E+00  0.00000000E+00  0.00000000E+00
  0.00000000E+00  0.00000000E+00  0.00000000E+00
  0.00000000E+00  0.00000000E+00  0.00000000E+00
  0.00000000E+00  0.00000000E+00  0.00000000E+00
  0.00000000E+00  0.00000000E+00  0.00000000E+00
  0.00000000E+00  0.00000000E+00  0.00000000E+00
  0.00000000E+00  0.00000000E+00  0.00000000E+00
  0.00000000E+00  0.00000000E+00  0.00000000E+00
  0.00000000E+00  0.00000000E+00  0.00000000E+00
  0.00000000E+00  0.00000000E+00  0.00000000E+00
  0.00000000E+00  0.00000000E+00  0.00000000E+00
  0.00000000E+00  0.00000000E+00  0.00000000E+00
  0.00000000E+00  0.00000000E+00  0.00000000E+00
  0.00000000E+00  0.00000000E+00  0.00000000E+00
  0.00000000E+00  0.00000000E+00  0.00000000E+00
  0.00000000E+00  0.00000000E+00  0.00000000E+00
  0.00000000E+00  0.00000000E+00  0.00000000E+00
  0.00000000E+00  0.00000000E+00  0.00000000E+00
  0.00000000E+00  0.00000000E+00  0.00000000E+00
  0.00000000E+00  0.00000000E+00  0.00000000E+00
  0.00000000E+00  0.00000000E+00  0.00000000E+00
  0.00000000E+00  0.00000000E+00  0.00000000E+00
  0.00000000E+00  0.00000000E+00  0.00000000E+00
  0.00000000E+00  0.00000000E+00  0.00000000E+00
  0.00000000E+00  0.00000000E+00  0.00000000E+00
  0.00000000E+00  0.00000000E+00  0.00000000E+00
  0.00000000E+00  0.00000000E+00  0.00000000E+00
  0.00000000E+00  0.00000000E+00  0.00000000E+00
  0.00000000E+00  0.00000000E+00  0.00000000E+00
  0.00000000E+00  0.00000000E+00  0.00000000E+00
  0.00000000E+00  0.00000000E+00  0.00000000E+00
  0.00000000E+00  0.00000000E+00  0.00000000E+00
  0.00000000E+00  0.00000000E+00  0.00000000E+00
  0.00000000E+00  0.00000000E+00  0.00000000E+00
  0.00000000E+00  0.00000000E+00  0.00000000E+00
  0.00000000E+00  0.00000000E+00  0.00000000E+00
  0.00000000E+00  0.00000000E+00  0.00000000E+00
  0.00000000E+00  0.00000000E+00  0.00000000E+00
  0.00000000E+00  0.00000000E+00  0.00000000E+00
  0.00000000E+00  0.00000000E+00  0.00000000E+00
  0.00000000E+00  0.00000000E+00  0.00000000E+00
  0.00000000E+00  0.00000000E+00  0.00000000E+00
  0.00000000E+00  0.00000000E+00  0.00000000E+00
  0.00000000E+00  0.00000000E+00  0.00000000E+00
  0.00000000E+00  0.00000000E+00  0.00000000E+00
  0.00000000E+00  0.00000000E+00  0.00000000E+00
  0.00000000E+00  0.00000000E+00  0.00000000E+00
  0.00000000E+00  0.00000000E+00  0.00000000E+00
  0.00000000E+00  0.00000000E+00  0.00000000E+00
  0.00000000E+00  0.00000000E+00  0.00000000E+00
  0.00000000E+00  0.00000000E+00  0.00000000E+00
  0.00000000E+00  0.00000000E+00  0.00000000E+00
  0.00000000E+00  0.00000000E+00  0.00000000E+00
  0.00000000E+00  0.00000000E+00  0.00000000E+00
  0.00000000E+00  0.00000000E+00  0.00000000E+00
  0.00000000E+00  0.00000000E+00  0.00000000E+00
  0.00000000E+00  0.00000000E+00  0.00000000E+00
  0.00000000E+00  0.00000000E+00  0.00000000E+00
  0.00000000E+00  0.00000000E+00  0.00000000E+00
  0.00000000E+00  0.00000000E+00  0.00000000E+00
  0.00000000E+00  0.00000000E+00  0.00000000E+00
  0.00000000E+00  0.00000000E+00  0.00000000E+00
