Sb Mn Ba                                 100024
   1.00000000000000     
    -2.2384156479506010    2.2384156479506010   12.1944598731678902
     2.2384156479506010   -2.2384156479506010   12.1944598731678902
     2.2384156479506010    2.2384156479506010  -12.1944598731678902
   Sb   Mn   Ba
     4     2     2
Direct
  0.0000000000000000  0.5000000000000000  0.5000000000000000
  0.5000000000000000  0.0000000000000000  0.5000000000000000
  0.3203186948133805  0.3203186948133805  0.0000000000000000
  0.6796813051866195  0.6796813051866195  0.0000000000000000
  0.2500000000000000  0.7500000000000000  0.5000000000000000
  0.7500000000000000  0.2500000000000000  0.5000000000000000
  0.1126891042180631  0.1126891042180631  0.0000000000000000
  0.8873108957819440  0.8873108957819440  0.0000000000000000
 
  0.00000000E+00  0.00000000E+00  0.00000000E+00
  0.00000000E+00  0.00000000E+00  0.00000000E+00
  0.00000000E+00  0.00000000E+00  0.00000000E+00
  0.00000000E+00  0.00000000E+00  0.00000000E+00
  0.00000000E+00  0.00000000E+00  0.00000000E+00
  0.00000000E+00  0.00000000E+00  0.00000000E+00
  0.00000000E+00  0.00000000E+00  0.00000000E+00
  0.00000000E+00  0.00000000E+00  0.00000000E+00
