O Al Cu                                  100355
   1.00000000000000     
     0.0000000000000000    4.1927421265240046    4.1927421265240046
     4.1927421265240046    0.0000000000000000    4.1927421265240046
     4.1927421265240046    4.1927421265240046    0.0000000000000000
   O    Al   Cu
     7     4     2
Direct
  0.7422562577042768  0.2577437422957232  0.2577437422957232
  0.2577437422957232  0.2577437422957232  0.7422562577042768
  0.7422562577042768  0.2577437422957232  0.7422562577042768
  0.2577437422957232  0.7422562577042768  0.7422562577042768
  0.7422562577042768  0.7422562577042768  0.2577437422957232
  0.2577437422957232  0.7422562577042768  0.2577437422957232
  0.2500000000000000  0.2500000000000000  0.2500000000000000
  0.3801360333626462  0.8595918999120542  0.3801360333626462
  0.8595918999120542  0.3801360333626462  0.3801360333626462
  0.3801360333626462  0.3801360333626462  0.8595918999120542
  0.3801360333626462  0.3801360333626462  0.3801360333626462
  0.0000000000000000  0.0000000000000000  0.0000000000000000
  0.7500000000000000  0.7500000000000000  0.7500000000000000
 
  0.00000000E+00  0.00000000E+00  0.00000000E+00
  0.00000000E+00  0.00000000E+00  0.00000000E+00
  0.00000000E+00  0.00000000E+00  0.00000000E+00
  0.00000000E+00  0.00000000E+00  0.00000000E+00
  0.00000000E+00  0.00000000E+00  0.00000000E+00
  0.00000000E+00  0.00000000E+00  0.00000000E+00
  0.00000000E+00  0.00000000E+00  0.00000000E+00
  0.00000000E+00  0.00000000E+00  0.00000000E+00
  0.00000000E+00  0.00000000E+00  0.00000000E+00
  0.00000000E+00  0.00000000E+00  0.00000000E+00
  0.00000000E+00  0.00000000E+00  0.00000000E+00
  0.00000000E+00  0.00000000E+00  0.00000000E+00
  0.00000000E+00  0.00000000E+00  0.00000000E+00
