Pb O F                                   10416
   1.00000000000000     
     8.0853512303862747    0.0000000000000000    0.0000000000000000
     0.0000000000000000    8.0853512303862747    0.0000000000000000
     0.0000000000000000    0.0000000000000000    5.6560306926208916
   Pb   O    F 
     8     4     8
Direct
  0.0000000000000000  0.2730392551026384  0.8135872108002928
  0.7269607448973616  0.0000000000000000  0.1864127891997072
  0.2269607448973616  0.5000000000000000  0.3135872108002928
  0.2730392551026384  0.0000000000000000  0.1864127891997072
  0.5000000000000000  0.7730392551026384  0.6864127891997072
  0.5000000000000000  0.2269607448973616  0.6864127891997072
  0.0000000000000000  0.7269607448973616  0.8135872108002928
  0.7730392551026384  0.5000000000000000  0.3135872108002928
  0.0000000000000000  0.5000000000000000  0.0844636015568625
  0.5000000000000000  0.0000000000000000  0.9155363984431375
  0.0000000000000000  0.5000000000000000  0.5844636015568625
  0.5000000000000000  0.0000000000000000  0.4155363984431375
  0.7107934074902715  0.2892065925097285  0.0000000000000000
  0.2107934074902715  0.7892065925097285  0.5000000000000000
  0.2892065925097285  0.2892065925097285  0.0000000000000000
  0.7892065925097285  0.7892065925097285  0.5000000000000000
  0.7892065925097285  0.2107934074902715  0.5000000000000000
  0.2892065925097285  0.7107934074902715  0.0000000000000000
  0.7107934074902715  0.7107934074902715  0.0000000000000000
  0.2107934074902715  0.2107934074902715  0.5000000000000000
 
  0.00000000E+00  0.00000000E+00  0.00000000E+00
  0.00000000E+00  0.00000000E+00  0.00000000E+00
  0.00000000E+00  0.00000000E+00  0.00000000E+00
  0.00000000E+00  0.00000000E+00  0.00000000E+00
  0.00000000E+00  0.00000000E+00  0.00000000E+00
  0.00000000E+00  0.00000000E+00  0.00000000E+00
  0.00000000E+00  0.00000000E+00  0.00000000E+00
  0.00000000E+00  0.00000000E+00  0.00000000E+00
  0.00000000E+00  0.00000000E+00  0.00000000E+00
  0.00000000E+00  0.00000000E+00  0.00000000E+00
  0.00000000E+00  0.00000000E+00  0.00000000E+00
  0.00000000E+00  0.00000000E+00  0.00000000E+00
  0.00000000E+00  0.00000000E+00  0.00000000E+00
  0.00000000E+00  0.00000000E+00  0.00000000E+00
  0.00000000E+00  0.00000000E+00  0.00000000E+00
  0.00000000E+00  0.00000000E+00  0.00000000E+00
  0.00000000E+00  0.00000000E+00  0.00000000E+00
  0.00000000E+00  0.00000000E+00  0.00000000E+00
  0.00000000E+00  0.00000000E+00  0.00000000E+00
  0.00000000E+00  0.00000000E+00  0.00000000E+00
