Se In                                    1376
   1.00000000000000     
     7.2126476240458235    0.0000000403039984    0.0000000000000000
    -3.6063238469271988    6.2463360508171570    0.0000000000000000
     0.0000000000000000    0.0000000000000000   19.2087254629634607
   Se   In
    18    12
Direct
  0.0473910906273218  0.3463465593911934  0.1361847191190435
  0.9526089093726782  0.6536534406088066  0.6361847191190435
  0.2989554687638716  0.9526089093726782  0.8028513857857149
  0.6536534406088066  0.7010445312361284  0.4695180524523792
  0.3463465593911934  0.2989554687638716  0.9695180524523792
  0.7010445312361284  0.0473910906273218  0.3028513857857149
  0.6315848436447382  0.6562361053345498  0.1218907400676059
  0.3684151563552618  0.3437638946654502  0.6218907400676059
  0.0246512616898116  0.3684151563552618  0.7885574067342702
  0.3437638946654502  0.9753487383101884  0.4552240734009416
  0.6562361053345498  0.0246512616898116  0.9552240734009416
  0.9753487383101884  0.6315848436447382  0.2885574067342702
  0.3475370257446642  0.0762171437471935  0.1589883591293670
  0.6524629742553358  0.9237828562528065  0.6589883591293670
  0.7286801180025293  0.6524629742553358  0.8256550257960313
  0.9237828562528065  0.2713198819974707  0.4923216924627027
  0.0762171437471935  0.7286801180025293  0.9923216924627027
  0.2713198819974707  0.3475370257446642  0.3256550257960313
  0.0119651312302622  0.6972010413300822  0.1386317656703042
  0.9880348687697378  0.3027989586699178  0.6386317656703042
  0.6852359100998271  0.9880348687697378  0.8052984323369685
  0.3027989586699178  0.3147640899001729  0.4719650990036328
  0.6972010413300822  0.6852359100998271  0.9719650990036328
  0.3147640899001729  0.0119651312302622  0.3052984323369685
  0.6730906270715877  0.0147952472874948  0.1655544160136770
  0.3269093729284123  0.9852047527125052  0.6655544160136770
  0.3417046202158929  0.3269093729284123  0.8322210826803413
  0.9852047527125052  0.6582953797841071  0.4988877493470127
  0.0147952472874948  0.3417046202158929  0.9988877493470127
  0.6582953797841071  0.6730906270715877  0.3322210826803413
 
  0.00000000E+00  0.00000000E+00  0.00000000E+00
  0.00000000E+00  0.00000000E+00  0.00000000E+00
  0.00000000E+00  0.00000000E+00  0.00000000E+00
  0.00000000E+00  0.00000000E+00  0.00000000E+00
  0.00000000E+00  0.00000000E+00  0.00000000E+00
  0.00000000E+00  0.00000000E+00  0.00000000E+00
  0.00000000E+00  0.00000000E+00  0.00000000E+00
  0.00000000E+00  0.00000000E+00  0.00000000E+00
  0.00000000E+00  0.00000000E+00  0.00000000E+00
  0.00000000E+00  0.00000000E+00  0.00000000E+00
  0.00000000E+00  0.00000000E+00  0.00000000E+00
  0.00000000E+00  0.00000000E+00  0.00000000E+00
  0.00000000E+00  0.00000000E+00  0.00000000E+00
  0.00000000E+00  0.00000000E+00  0.00000000E+00
  0.00000000E+00  0.00000000E+00  0.00000000E+00
  0.00000000E+00  0.00000000E+00  0.00000000E+00
  0.00000000E+00  0.00000000E+00  0.00000000E+00
  0.00000000E+00  0.00000000E+00  0.00000000E+00
  0.00000000E+00  0.00000000E+00  0.00000000E+00
  0.00000000E+00  0.00000000E+00  0.00000000E+00
  0.00000000E+00  0.00000000E+00  0.00000000E+00
  0.00000000E+00  0.00000000E+00  0.00000000E+00
  0.00000000E+00  0.00000000E+00  0.00000000E+00
  0.00000000E+00  0.00000000E+00  0.00000000E+00
  0.00000000E+00  0.00000000E+00  0.00000000E+00
  0.00000000E+00  0.00000000E+00  0.00000000E+00
  0.00000000E+00  0.00000000E+00  0.00000000E+00
  0.00000000E+00  0.00000000E+00  0.00000000E+00
  0.00000000E+00  0.00000000E+00  0.00000000E+00
  0.00000000E+00  0.00000000E+00  0.00000000E+00
