Ru O La                                  100098
   1.00000000000000     
    -4.4634644971686654    4.4634644971686654    4.4634644971686654
     4.4634644971686654   -4.4634644971686654    4.4634644971686654
     4.4634644971686654    4.4634644971686654   -4.4634644971686654
   Ru   O    La
     6    19     4
Direct
  0.8515742978395906  0.3515742978395906  0.5000000000000000
  0.3515742978395906  0.5000000000000000  0.8515742978395906
  0.1484257021604094  0.6484257021604094  0.5000000000000000
  0.5000000000000000  0.1484257021604094  0.6484257021604094
  0.5000000000000000  0.8515742978395906  0.3515742978395906
  0.6484257021604094  0.5000000000000000  0.1484257021604094
  0.3346235983090509  0.3346235983090509  0.0000000000000000
  0.3346235983090509  0.0000000000000000  0.3346235983090509
  0.6653764016909491  0.6653764016909491  0.0000000000000000
  0.0000000000000000  0.6653764016909491  0.6653764016909491
  0.0000000000000000  0.3346235983090509  0.3346235983090509
  0.6653764016909491  0.0000000000000000  0.6653764016909491
  0.0000000000000000  0.0000000000000000  0.0000000000000000
  0.6187480190867731  0.3624614011312417  0.3164360028745179
  0.0460253982567309  0.3023120162122623  0.6835639971254892
  0.3023120162122623  0.6835639971254892  0.0460253982567309
  0.9539746017432691  0.6375385988687583  0.2562866179555314
  0.3812519809132269  0.6976879837877377  0.7437133820444686
  0.3624614011312417  0.3164360028745179  0.6187480190867731
  0.7437133820444686  0.3812519809132269  0.6976879837877377
  0.6835639971254892  0.0460253982567309  0.3023120162122623
  0.6976879837877377  0.7437133820444686  0.3812519809132269
  0.6375385988687583  0.2562866179555314  0.9539746017432691
  0.2562866179555314  0.9539746017432691  0.6375385988687583
  0.3164360028745179  0.6187480190867731  0.3624614011312417
  0.3197345646384875  0.0000000000000000  0.0000000000000000
  0.0000000000000000  0.3197345646384875  0.0000000000000000
  0.0000000000000000  0.0000000000000000  0.3197345646384875
  0.6802654353615125  0.6802654353615125  0.6802654353615125
 
  0.00000000E+00  0.00000000E+00  0.00000000E+00
  0.00000000E+00  0.00000000E+00  0.00000000E+00
  0.00000000E+00  0.00000000E+00  0.00000000E+00
  0.00000000E+00  0.00000000E+00  0.00000000E+00
  0.00000000E+00  0.00000000E+00  0.00000000E+00
  0.00000000E+00  0.00000000E+00  0.00000000E+00
  0.00000000E+00  0.00000000E+00  0.00000000E+00
  0.00000000E+00  0.00000000E+00  0.00000000E+00
  0.00000000E+00  0.00000000E+00  0.00000000E+00
  0.00000000E+00  0.00000000E+00  0.00000000E+00
  0.00000000E+00  0.00000000E+00  0.00000000E+00
  0.00000000E+00  0.00000000E+00  0.00000000E+00
  0.00000000E+00  0.00000000E+00  0.00000000E+00
  0.00000000E+00  0.00000000E+00  0.00000000E+00
  0.00000000E+00  0.00000000E+00  0.00000000E+00
  0.00000000E+00  0.00000000E+00  0.00000000E+00
  0.00000000E+00  0.00000000E+00  0.00000000E+00
  0.00000000E+00  0.00000000E+00  0.00000000E+00
  0.00000000E+00  0.00000000E+00  0.00000000E+00
  0.00000000E+00  0.00000000E+00  0.00000000E+00
  0.00000000E+00  0.00000000E+00  0.00000000E+00
  0.00000000E+00  0.00000000E+00  0.00000000E+00
  0.00000000E+00  0.00000000E+00  0.00000000E+00
  0.00000000E+00  0.00000000E+00  0.00000000E+00
  0.00000000E+00  0.00000000E+00  0.00000000E+00
  0.00000000E+00  0.00000000E+00  0.00000000E+00
  0.00000000E+00  0.00000000E+00  0.00000000E+00
  0.00000000E+00  0.00000000E+00  0.00000000E+00
  0.00000000E+00  0.00000000E+00  0.00000000E+00
