Bi O V                                   100601
   1.00000000000000     
    -2.5566961760709148    2.5566962472402630    5.7988743793292192
     2.5566961760709148   -2.5566962472402630    5.7988743793292192
     2.5566962472402630    2.5566961760709148   -5.7988743793292192
   Bi   O    V 
     2     8     2
Direct
  0.0000000000000000  0.0000000000000000  0.0000000000000000
  0.7500000000000000  0.2500000000000000  0.5000000000000000
  0.7197278716804547  0.3267966956491648  0.8874748033667430
  0.5822530683137188  0.9697278716804547  0.8929311760312970
  0.6732033043508352  0.5606781077175782  0.3929311760312970
  0.3106781077175782  0.4177469316862812  0.3874748033667430
  0.4393218922824218  0.8322530683137188  0.1125251966332570
  0.0302721283195453  0.9232033043508352  0.6125251966332570
  0.1677469316862812  0.2802721283195453  0.6070688239687030
  0.0767966956491648  0.6893218922824218  0.1070688239687030
  0.5000000000000000  0.5000000000000000  0.0000000000000000
  0.2500000000000000  0.7500000000000000  0.5000000000000000
 
  0.00000000E+00  0.00000000E+00  0.00000000E+00
  0.00000000E+00  0.00000000E+00  0.00000000E+00
  0.00000000E+00  0.00000000E+00  0.00000000E+00
  0.00000000E+00  0.00000000E+00  0.00000000E+00
  0.00000000E+00  0.00000000E+00  0.00000000E+00
  0.00000000E+00  0.00000000E+00  0.00000000E+00
  0.00000000E+00  0.00000000E+00  0.00000000E+00
  0.00000000E+00  0.00000000E+00  0.00000000E+00
  0.00000000E+00  0.00000000E+00  0.00000000E+00
  0.00000000E+00  0.00000000E+00  0.00000000E+00
  0.00000000E+00  0.00000000E+00  0.00000000E+00
  0.00000000E+00  0.00000000E+00  0.00000000E+00
