Sr Ge S Cu                               10005
   1.00000000000000     
     6.0878996548372957   -0.0000000993500696    0.0000000000000000
    -3.0439497413789636    5.2722758064546476    0.0000000000000000
     0.0000000000000000    0.0000000000000000   15.1033480853362025
   Sr   Ge   S    Cu
     3     3    12     6
Direct
  0.3328071878001566  0.2178373401132347  0.7495603271333877
  0.8850301523130639  0.6671928121998434  0.0828936604667234
  0.7821626598867653  0.1149698476869361  0.4162269938000520
  0.6190821179600547  0.9533022558342097  0.9162667546648748
  0.3342201378741620  0.3809178820399453  0.2496000879982105
  0.0466977441657832  0.6657798621258380  0.5829334213315391
  0.8260676089608765  0.1964029024661400  0.7999405753192477
  0.3703352935052564  0.1739323910391235  0.1332739086525763
  0.8035970975338600  0.6296647064947436  0.4666072419859120
  0.8396565160634708  0.7018736623769257  0.6990670293002950
  0.8622171463134549  0.1603434839365292  0.0324003626336307
  0.2981263376230743  0.1377828536865451  0.3657336959669664
  0.5657736090128793  0.5610351650689296  0.9137100217683312
  0.9952615560560503  0.4342263909871207  0.2470433551016598
  0.4389648349310704  0.0047384439439497  0.5803766884349955
  0.2267254262650269  0.8992668114849920  0.9184958554720311
  0.6725413852199651  0.7732745737349731  0.2518291888053596
  0.1007331885150080  0.3274586147800349  0.5851625221386954
  0.7554586615594587  0.0115301561110215  0.6608105638081199
  0.2560714945515628  0.2445413384405413  0.9941438971414485
  0.9884698438889785  0.7439285054484372  0.3274772304747842
  0.9100604226072662  0.5896164116969373  0.8384488725337533
  0.6795559890896641  0.0899395773927338  0.1717822058670819
  0.4103835883030627  0.3204440109103359  0.5051155392004176
 
  0.00000000E+00  0.00000000E+00  0.00000000E+00
  0.00000000E+00  0.00000000E+00  0.00000000E+00
  0.00000000E+00  0.00000000E+00  0.00000000E+00
  0.00000000E+00  0.00000000E+00  0.00000000E+00
  0.00000000E+00  0.00000000E+00  0.00000000E+00
  0.00000000E+00  0.00000000E+00  0.00000000E+00
  0.00000000E+00  0.00000000E+00  0.00000000E+00
  0.00000000E+00  0.00000000E+00  0.00000000E+00
  0.00000000E+00  0.00000000E+00  0.00000000E+00
  0.00000000E+00  0.00000000E+00  0.00000000E+00
  0.00000000E+00  0.00000000E+00  0.00000000E+00
  0.00000000E+00  0.00000000E+00  0.00000000E+00
  0.00000000E+00  0.00000000E+00  0.00000000E+00
  0.00000000E+00  0.00000000E+00  0.00000000E+00
  0.00000000E+00  0.00000000E+00  0.00000000E+00
  0.00000000E+00  0.00000000E+00  0.00000000E+00
  0.00000000E+00  0.00000000E+00  0.00000000E+00
  0.00000000E+00  0.00000000E+00  0.00000000E+00
  0.00000000E+00  0.00000000E+00  0.00000000E+00
  0.00000000E+00  0.00000000E+00  0.00000000E+00
  0.00000000E+00  0.00000000E+00  0.00000000E+00
  0.00000000E+00  0.00000000E+00  0.00000000E+00
  0.00000000E+00  0.00000000E+00  0.00000000E+00
  0.00000000E+00  0.00000000E+00  0.00000000E+00
