Ni Ti                                    156442
   1.00000000000000     
     7.2770189318733243    0.0000000000000000    0.0000000000000000
    -3.6385094659366621    6.3020832588225986    0.0000000000000000
     0.0000000000000000    0.0000000000000000    5.2866641082361525
   Ni   Ti
     9     9
Direct
  0.0000000000000000  0.0000000000000000  0.5654953569685190
  0.3333333333333357  0.6666666666666643  0.3603959895099891
  0.6666666666666643  0.3333333333333357  0.3603959895099891
  0.3105381854563234  0.0000000000000000  0.8251486672111099
  0.6894618145436766  0.6894618145436766  0.8251486672111099
  0.0000000000000000  0.3105381854563234  0.8251486672111099
  0.6385872484376023  0.0000000000000000  0.0872267648252176
  0.3614127515623977  0.3614127515623977  0.0872267648252176
  0.0000000000000000  0.6385872484376023  0.0872267648252176
  0.0000000000000000  0.0000000000000000  0.0306483643206974
  0.3333333333333357  0.6666666666666643  0.8977365268292630
  0.6666666666666643  0.3333333333333357  0.8977365268292630
  0.3212678665071138  0.0000000000000000  0.3054387533886995
  0.6787321334928862  0.6787321334928862  0.3054387533886995
  0.0000000000000000  0.3212678665071138  0.3054387533886995
  0.6593546641652352  0.0000000000000000  0.5963828965857445
  0.3406453358347648  0.3406453358347648  0.5963828965857445
  0.0000000000000000  0.6593546641652352  0.5963828965857445
 
  0.00000000E+00  0.00000000E+00  0.00000000E+00
  0.00000000E+00  0.00000000E+00  0.00000000E+00
  0.00000000E+00  0.00000000E+00  0.00000000E+00
  0.00000000E+00  0.00000000E+00  0.00000000E+00
  0.00000000E+00  0.00000000E+00  0.00000000E+00
  0.00000000E+00  0.00000000E+00  0.00000000E+00
  0.00000000E+00  0.00000000E+00  0.00000000E+00
  0.00000000E+00  0.00000000E+00  0.00000000E+00
  0.00000000E+00  0.00000000E+00  0.00000000E+00
  0.00000000E+00  0.00000000E+00  0.00000000E+00
  0.00000000E+00  0.00000000E+00  0.00000000E+00
  0.00000000E+00  0.00000000E+00  0.00000000E+00
  0.00000000E+00  0.00000000E+00  0.00000000E+00
  0.00000000E+00  0.00000000E+00  0.00000000E+00
  0.00000000E+00  0.00000000E+00  0.00000000E+00
  0.00000000E+00  0.00000000E+00  0.00000000E+00
  0.00000000E+00  0.00000000E+00  0.00000000E+00
  0.00000000E+00  0.00000000E+00  0.00000000E+00
