In Bi Ba                                 54853
   1.00000000000000     
    10.6119023687003740    0.0000000000000000    0.0000000000000000
     0.0000000000000000   10.6119023687003740    0.0000000000000000
     0.0000000000000000    0.0000000000000000    8.9083989847138376
   In   Bi   Ba
     8    10    10
Direct
  0.1838154574029716  0.0723738106883260  0.5296955418669853
  0.4276261893116740  0.3161845425970284  0.0296955418669853
  0.0723738106883260  0.8161845425970284  0.5296955418669853
  0.5723738106883260  0.6838154574029716  0.0296955418669853
  0.3161845425970284  0.5723738106883260  0.0296955418669853
  0.8161845425970284  0.9276261893116740  0.5296955418669853
  0.6838154574029716  0.4276261893116740  0.0296955418669853
  0.9276261893116740  0.1838154574029716  0.5296955418669853
  0.3906335608030247  0.1899920524630829  0.6934882852339328
  0.3100079475369171  0.1093664391969753  0.1934882852339328
  0.1899920524630829  0.6093664391969753  0.6934882852339328
  0.6899920524630829  0.8906335608030247  0.1934882852339328
  0.1093664391969753  0.6899920524630829  0.1934882852339328
  0.6093664391969753  0.8100079475369171  0.6934882852339328
  0.8906335608030247  0.3100079475369171  0.1934882852339328
  0.8100079475369171  0.3906335608030247  0.6934882852339328
  0.5000000000000000  0.5000000000000000  0.3132643694065607
  0.0000000000000000  0.0000000000000000  0.8132643694065607
  0.6059538806550151  0.1891442926767510  0.3743695212116194
  0.3108557073232490  0.8940461193449849  0.8743695212116194
  0.1891442926767510  0.3940461193449849  0.3743695212116194
  0.6891442926767510  0.1059538806550151  0.8743695212116194
  0.8940461193449849  0.6891442926767510  0.8743695212116194
  0.3940461193449849  0.8108557073232490  0.3743695212116194
  0.1059538806550151  0.3108557073232490  0.8743695212116194
  0.8108557073232490  0.6059538806550151  0.3743695212116194
  0.5000000000000000  0.5000000000000000  0.6983022373432846
  0.0000000000000000  0.0000000000000000  0.1983022373432846
 
  0.00000000E+00  0.00000000E+00  0.00000000E+00
  0.00000000E+00  0.00000000E+00  0.00000000E+00
  0.00000000E+00  0.00000000E+00  0.00000000E+00
  0.00000000E+00  0.00000000E+00  0.00000000E+00
  0.00000000E+00  0.00000000E+00  0.00000000E+00
  0.00000000E+00  0.00000000E+00  0.00000000E+00
  0.00000000E+00  0.00000000E+00  0.00000000E+00
  0.00000000E+00  0.00000000E+00  0.00000000E+00
  0.00000000E+00  0.00000000E+00  0.00000000E+00
  0.00000000E+00  0.00000000E+00  0.00000000E+00
  0.00000000E+00  0.00000000E+00  0.00000000E+00
  0.00000000E+00  0.00000000E+00  0.00000000E+00
  0.00000000E+00  0.00000000E+00  0.00000000E+00
  0.00000000E+00  0.00000000E+00  0.00000000E+00
  0.00000000E+00  0.00000000E+00  0.00000000E+00
  0.00000000E+00  0.00000000E+00  0.00000000E+00
  0.00000000E+00  0.00000000E+00  0.00000000E+00
  0.00000000E+00  0.00000000E+00  0.00000000E+00
  0.00000000E+00  0.00000000E+00  0.00000000E+00
  0.00000000E+00  0.00000000E+00  0.00000000E+00
  0.00000000E+00  0.00000000E+00  0.00000000E+00
  0.00000000E+00  0.00000000E+00  0.00000000E+00
  0.00000000E+00  0.00000000E+00  0.00000000E+00
  0.00000000E+00  0.00000000E+00  0.00000000E+00
  0.00000000E+00  0.00000000E+00  0.00000000E+00
  0.00000000E+00  0.00000000E+00  0.00000000E+00
  0.00000000E+00  0.00000000E+00  0.00000000E+00
  0.00000000E+00  0.00000000E+00  0.00000000E+00
