P O Ag                                   14000
   1.00000000000000     
     5.9376287397149143    0.0000000000000000    0.0000000000000000
     0.0000000000000000    5.9376287397149143    0.0000000000000000
     0.0000000000000000    0.0000000000000000    5.9376287397149143
   P    O    Ag
     2     8     6
Direct
  0.0000000000000000  0.0000000000000000  0.0000000000000000
  0.5000000000000000  0.5000000000000000  0.5000000000000000
  0.1517522730635932  0.1517522730635932  0.1517522730635932
  0.8482477269364068  0.8482477269364068  0.1517522730635932
  0.1517522730635932  0.8482477269364068  0.8482477269364068
  0.6517522730635932  0.3482477269364068  0.3482477269364068
  0.3482477269364068  0.6517522730635932  0.3482477269364068
  0.3482477269364068  0.3482477269364068  0.6517522730635932
  0.6517522730635932  0.6517522730635932  0.6517522730635932
  0.8482477269364068  0.1517522730635932  0.8482477269364068
  0.2500000000000000  0.0000000000000000  0.5000000000000000
  0.0000000000000000  0.5000000000000000  0.2500000000000000
  0.5000000000000000  0.2500000000000000  0.0000000000000000
  0.5000000000000000  0.7500000000000000  0.0000000000000000
  0.0000000000000000  0.5000000000000000  0.7500000000000000
  0.7500000000000000  0.0000000000000000  0.5000000000000000
 
  0.00000000E+00  0.00000000E+00  0.00000000E+00
  0.00000000E+00  0.00000000E+00  0.00000000E+00
  0.00000000E+00  0.00000000E+00  0.00000000E+00
  0.00000000E+00  0.00000000E+00  0.00000000E+00
  0.00000000E+00  0.00000000E+00  0.00000000E+00
  0.00000000E+00  0.00000000E+00  0.00000000E+00
  0.00000000E+00  0.00000000E+00  0.00000000E+00
  0.00000000E+00  0.00000000E+00  0.00000000E+00
  0.00000000E+00  0.00000000E+00  0.00000000E+00
  0.00000000E+00  0.00000000E+00  0.00000000E+00
  0.00000000E+00  0.00000000E+00  0.00000000E+00
  0.00000000E+00  0.00000000E+00  0.00000000E+00
  0.00000000E+00  0.00000000E+00  0.00000000E+00
  0.00000000E+00  0.00000000E+00  0.00000000E+00
  0.00000000E+00  0.00000000E+00  0.00000000E+00
  0.00000000E+00  0.00000000E+00  0.00000000E+00
