S Rh                                     105914
   1.00000000000000     
     5.6403702957045523    0.0000000000000000    0.0000000000000000
     0.0000000000000001    5.6403702957045523    0.0000000000000000
     0.0000000000000000    0.0000000000000000    5.6403702957045523
   S    Rh
     8     4
Direct
  0.3874283603267230  0.3874283603267230  0.3874283603267230
  0.8874283603267301  0.1125716396732770  0.6125716396732699
  0.3874283603267230  0.1125716396732770  0.8874283603267301
  0.1125716396732770  0.6125716396732699  0.8874283603267301
  0.1125716396732770  0.8874283603267301  0.3874283603267230
  0.6125716396732699  0.8874283603267301  0.1125716396732770
  0.8874283603267301  0.3874283603267230  0.1125716396732770
  0.6125716396732699  0.6125716396732699  0.6125716396732699
  0.0000000000000000  0.0000000000000000  0.0000000000000000
  0.5000000000000000  0.5000000000000000  0.0000000000000000
  0.0000000000000000  0.5000000000000000  0.5000000000000000
  0.5000000000000000  0.0000000000000000  0.5000000000000000
 
  0.00000000E+00  0.00000000E+00  0.00000000E+00
  0.00000000E+00  0.00000000E+00  0.00000000E+00
  0.00000000E+00  0.00000000E+00  0.00000000E+00
  0.00000000E+00  0.00000000E+00  0.00000000E+00
  0.00000000E+00  0.00000000E+00  0.00000000E+00
  0.00000000E+00  0.00000000E+00  0.00000000E+00
  0.00000000E+00  0.00000000E+00  0.00000000E+00
  0.00000000E+00  0.00000000E+00  0.00000000E+00
  0.00000000E+00  0.00000000E+00  0.00000000E+00
  0.00000000E+00  0.00000000E+00  0.00000000E+00
  0.00000000E+00  0.00000000E+00  0.00000000E+00
  0.00000000E+00  0.00000000E+00  0.00000000E+00
