H Ca C O                                 100847
   1.00000000000000     
    10.4227347531296459   -0.0000000159673597    0.0000000000000000
    -5.2113673627366852    9.0263530811008845    0.0000000000000000
     0.0000000000000000    0.0000000000000000    7.4929066968911444
   H    Ca   C    O 
    18     9     9    36
Direct
  0.9997870352494758  0.4525195883924766  0.0779995890597931
  0.5474804116075234  0.5472674468570133  0.4113329223931217
  0.4527325531429867  0.0002129647505313  0.7446662557264574
  0.6637741226785110  0.7791837529818793  0.0877111795120058
  0.2208162470181207  0.8845903696966388  0.4210445128453344
  0.1154096303033612  0.3362258773214890  0.7543778461786701
  0.3376301400393302  0.1274915064930511  0.0794852218638624
  0.8725084935069489  0.2101386335462649  0.4128185551971910
  0.7898613664537351  0.6623698599606698  0.7461518885305267
  0.0005819569741945  0.5525522014849358  0.2397837323768783
  0.4474477985150642  0.4480297554892587  0.5731170657101998
  0.5519702445107413  0.9994180430258126  0.9064503990435355
  0.6700506931872781  0.8806432586151303  0.2502789134982208
  0.1193567413848626  0.7894074345721407  0.5836122468315494
  0.2105925654278593  0.3299493068127219  0.9169455801648851
  0.3295452258754068  0.2217753696555604  0.2414862866495113
  0.7782246303444396  0.1077698562198464  0.5748196199828399
  0.8922301437801536  0.6704547741245932  0.9081529533161756
  0.8525788073940319  0.4180994434477796  0.6751481198117375
  0.5819005565522204  0.4344793639462452  0.0084814531450661
  0.5655206360537548  0.1474211926059681  0.3418147864784018
  0.5189619943070340  0.7615257198656735  0.6535409661382587
  0.2384742801343265  0.7574362744413534  0.9868742994715944
  0.2425637255586466  0.4810380056929660  0.3202076328049301
  0.1855204073321133  0.0941834983757630  0.6638424543867103
  0.9058165016242370  0.0913369089563645  0.9971757877200389
  0.9086630910436355  0.8144795926678867  0.3305091210533746
  0.7617154997558444  0.2525801909170724  0.0477558681808432
  0.7474198090829276  0.5091353088387791  0.3810892015141789
  0.4908646911612209  0.2382845002441556  0.7144225348475146
  0.4133972188988366  0.5707669852549841  0.9523324155081738
  0.4292330147450159  0.8426302336438525  0.2856657488415024
  0.1573697663561475  0.5866027811011634  0.6189990821748381
  0.1008649223118638  0.9255495456427170  0.0362162588826607
  0.0744504543572830  0.1753153766691469  0.3695495922160035
  0.8246846233308531  0.8991350776881362  0.7028829255493321
  0.0679093991430122  0.5351406936088097  0.1609946171130190
  0.4648593063911903  0.5327687055341954  0.4943279504463547
  0.4672312944658046  0.9320906008569878  0.8276612837796833
  0.7347290019648298  0.8628346240396212  0.1660586821307746
  0.1371653759603788  0.8718943779252015  0.4993920154641032
  0.1281056220747985  0.2652709980351702  0.8327253487974389
  0.4014361351112967  0.2077250854495389  0.1666407654940585
  0.7922749145504611  0.1937110496617649  0.4999740988273871
  0.8062889503382351  0.5985638648887033  0.8333074321607228
  0.8799451648869550  0.3097679629166379  0.9471707863422054
  0.6902320370833621  0.5701772019703029  0.2805041196755411
  0.4298227980296971  0.1200548351130450  0.6138374530088697
  0.6888583923164333  0.1101132892637224  0.0723956630711697
  0.8898867107362776  0.5787451030526967  0.4057289964045054
  0.4212548969473033  0.3111416076835667  0.7390623297378340
  0.5564467743389940  0.6442930887329439  0.9276365838295249
  0.3557069112670561  0.9121536856060430  0.2609699171628606
  0.0878463143939570  0.4435532256610060  0.5943032504961892
  0.3567194334305839  0.4543163549553952  0.0546986320811058
  0.5456836450446048  0.9024030784751957  0.3880319654144415
  0.0975969215248043  0.6432805665694161  0.7213652987477701
  0.2186361152315826  0.9835900883795787  0.9362027849357091
  0.0164099116204213  0.2350460268519967  0.2695361182690448
  0.7649539731480033  0.7813638847684174  0.6028694516023805
  0.0285831231418001  0.7825523378361865  0.0620393801750794
  0.2174476621638135  0.2460307853056065  0.3953727135084151
  0.7539692146943935  0.9714168768581999  0.7287060468417437
  0.7231719334332496  0.3350694883178491  0.1310044560307446
  0.6649305116821509  0.3881024451153934  0.4643377893640732
  0.6118975548846066  0.2768280665667504  0.7976711226974089
  0.3313447726507448  0.6086857982959657  0.8669095077183755
  0.3913142017040343  0.7226589743547791  0.2002428410517041
  0.2773410256452209  0.6686552273492552  0.5335761743850398
  0.0597341461429721  0.0060435052795000  0.1194338018763048
  0.9939564947205000  0.0536906408634863  0.4527671352096263
  0.9463093591365137  0.9402658538570279  0.7861004685429691
 
  0.00000000E+00  0.00000000E+00  0.00000000E+00
  0.00000000E+00  0.00000000E+00  0.00000000E+00
  0.00000000E+00  0.00000000E+00  0.00000000E+00
  0.00000000E+00  0.00000000E+00  0.00000000E+00
  0.00000000E+00  0.00000000E+00  0.00000000E+00
  0.00000000E+00  0.00000000E+00  0.00000000E+00
  0.00000000E+00  0.00000000E+00  0.00000000E+00
  0.00000000E+00  0.00000000E+00  0.00000000E+00
  0.00000000E+00  0.00000000E+00  0.00000000E+00
  0.00000000E+00  0.00000000E+00  0.00000000E+00
  0.00000000E+00  0.00000000E+00  0.00000000E+00
  0.00000000E+00  0.00000000E+00  0.00000000E+00
  0.00000000E+00  0.00000000E+00  0.00000000E+00
  0.00000000E+00  0.00000000E+00  0.00000000E+00
  0.00000000E+00  0.00000000E+00  0.00000000E+00
  0.00000000E+00  0.00000000E+00  0.00000000E+00
  0.00000000E+00  0.00000000E+00  0.00000000E+00
  0.00000000E+00  0.00000000E+00  0.00000000E+00
  0.00000000E+00  0.00000000E+00  0.00000000E+00
  0.00000000E+00  0.00000000E+00  0.00000000E+00
  0.00000000E+00  0.00000000E+00  0.00000000E+00
  0.00000000E+00  0.00000000E+00  0.00000000E+00
  0.00000000E+00  0.00000000E+00  0.00000000E+00
  0.00000000E+00  0.00000000E+00  0.00000000E+00
  0.00000000E+00  0.00000000E+00  0.00000000E+00
  0.00000000E+00  0.00000000E+00  0.00000000E+00
  0.00000000E+00  0.00000000E+00  0.00000000E+00
  0.00000000E+00  0.00000000E+00  0.00000000E+00
  0.00000000E+00  0.00000000E+00  0.00000000E+00
  0.00000000E+00  0.00000000E+00  0.00000000E+00
  0.00000000E+00  0.00000000E+00  0.00000000E+00
  0.00000000E+00  0.00000000E+00  0.00000000E+00
  0.00000000E+00  0.00000000E+00  0.00000000E+00
  0.00000000E+00  0.00000000E+00  0.00000000E+00
  0.00000000E+00  0.00000000E+00  0.00000000E+00
  0.00000000E+00  0.00000000E+00  0.00000000E+00
  0.00000000E+00  0.00000000E+00  0.00000000E+00
  0.00000000E+00  0.00000000E+00  0.00000000E+00
  0.00000000E+00  0.00000000E+00  0.00000000E+00
  0.00000000E+00  0.00000000E+00  0.00000000E+00
  0.00000000E+00  0.00000000E+00  0.00000000E+00
  0.00000000E+00  0.00000000E+00  0.00000000E+00
  0.00000000E+00  0.00000000E+00  0.00000000E+00
  0.00000000E+00  0.00000000E+00  0.00000000E+00
  0.00000000E+00  0.00000000E+00  0.00000000E+00
  0.00000000E+00  0.00000000E+00  0.00000000E+00
  0.00000000E+00  0.00000000E+00  0.00000000E+00
  0.00000000E+00  0.00000000E+00  0.00000000E+00
  0.00000000E+00  0.00000000E+00  0.00000000E+00
  0.00000000E+00  0.00000000E+00  0.00000000E+00
  0.00000000E+00  0.00000000E+00  0.00000000E+00
  0.00000000E+00  0.00000000E+00  0.00000000E+00
  0.00000000E+00  0.00000000E+00  0.00000000E+00
  0.00000000E+00  0.00000000E+00  0.00000000E+00
  0.00000000E+00  0.00000000E+00  0.00000000E+00
  0.00000000E+00  0.00000000E+00  0.00000000E+00
  0.00000000E+00  0.00000000E+00  0.00000000E+00
  0.00000000E+00  0.00000000E+00  0.00000000E+00
  0.00000000E+00  0.00000000E+00  0.00000000E+00
  0.00000000E+00  0.00000000E+00  0.00000000E+00
  0.00000000E+00  0.00000000E+00  0.00000000E+00
  0.00000000E+00  0.00000000E+00  0.00000000E+00
  0.00000000E+00  0.00000000E+00  0.00000000E+00
  0.00000000E+00  0.00000000E+00  0.00000000E+00
  0.00000000E+00  0.00000000E+00  0.00000000E+00
  0.00000000E+00  0.00000000E+00  0.00000000E+00
  0.00000000E+00  0.00000000E+00  0.00000000E+00
  0.00000000E+00  0.00000000E+00  0.00000000E+00
  0.00000000E+00  0.00000000E+00  0.00000000E+00
  0.00000000E+00  0.00000000E+00  0.00000000E+00
  0.00000000E+00  0.00000000E+00  0.00000000E+00
  0.00000000E+00  0.00000000E+00  0.00000000E+00
