P Al O                                   91671
   1.00000000000000     
    14.0460917673046453    0.0000000000000000    0.0000000000000000
    -7.0230458836523226   12.1642722943732853    0.0000000000000000
     0.0000000000000000    0.0000000000000000    8.6794880943413872
   P    Al   O 
    12    12    48
Direct
  0.6689074018278660  0.5466153465199142  0.9491687010401293
  0.6689074018278660  0.1222920553079589  0.4491687010401293
  0.5466153465199142  0.6689074018278660  0.4491687010401293
  0.8777079446920411  0.5466153465199142  0.4491687010401293
  0.5466153465199142  0.8777079446920411  0.9491687010401293
  0.4533846534800858  0.3310925981721340  0.4491687010401293
  0.3310925981721340  0.8777079446920411  0.4491687010401293
  0.1222920553079589  0.4533846534800858  0.4491687010401293
  0.3310925981721340  0.4533846534800858  0.9491687010401293
  0.1222920553079589  0.6689074018278660  0.9491687010401293
  0.8777079446920411  0.3310925981721340  0.9491687010401293
  0.4533846534800858  0.1222920553079589  0.9491687010401293
  0.6656668802940828  0.5445892239350627  0.5743346844728663
  0.6656668802940828  0.1210776563590272  0.0743346844728663
  0.5445892239350627  0.6656668802940828  0.0743346844728663
  0.8789223436409728  0.5445892239350627  0.0743346844728663
  0.5445892239350627  0.8789223436409728  0.5743346844728663
  0.4554107760649373  0.3343331197059172  0.0743346844728663
  0.3343331197059172  0.8789223436409728  0.0743346844728663
  0.1210776563590272  0.4554107760649373  0.0743346844728663
  0.3343331197059172  0.4554107760649373  0.5743346844728663
  0.1210776563590272  0.6656668802940828  0.5743346844728663
  0.8789223436409728  0.3343331197059172  0.5743346844728663
  0.4554107760649373  0.1210776563590272  0.5743346844728663
  0.7845957664960679  0.5790698772474983  0.0038008936934233
  0.7845957664960679  0.2055258892485696  0.5038008936934304
  0.5790698772474983  0.7845957664960679  0.5038008936934304
  0.7944741107514304  0.5790698772474983  0.5038008936934304
  0.5790698772474983  0.7944741107514304  0.0038008936934233
  0.4209301227525017  0.2154042335039321  0.5038008936934304
  0.2154042335039321  0.7944741107514304  0.5038008936934304
  0.2055258892485696  0.4209301227525017  0.5038008936934304
  0.2154042335039321  0.4209301227525017  0.0038008936934233
  0.2055258892485696  0.7845957664960679  0.0038008936934233
  0.7944741107514304  0.2154042335039321  0.0038008936934233
  0.4209301227525017  0.2055258892485696  0.0038008936934233
  0.6655795591252271  0.5443057482038540  0.7735519562764139
  0.6655795591252271  0.1212738109213873  0.2735519562764139
  0.5443057482038540  0.6655795591252271  0.2735519562764139
  0.8787261890786127  0.5443057482038540  0.2735519562764139
  0.5443057482038540  0.8787261890786127  0.7735519562764139
  0.4556942517961460  0.3344204408747729  0.2735519562764139
  0.3344204408747729  0.8787261890786127  0.2735519562764139
  0.1212738109213873  0.4556942517961460  0.2735519562764139
  0.3344204408747729  0.4556942517961460  0.7735519562764139
  0.1212738109213873  0.6655795591252271  0.7735519562764139
  0.8787261890786127  0.3344204408747729  0.7735519562764139
  0.4556942517961460  0.1212738109213873  0.7735519562764139
  0.6415453267875790  0.6330163451207298  0.0074245608189329
  0.6415453267875790  0.0085289816668421  0.5074245608189329
  0.6330163451207298  0.6415453267875790  0.5074245608189329
  0.9914710183331579  0.6330163451207298  0.5074245608189329
  0.6330163451207298  0.9914710183331579  0.0074245608189329
  0.3669836548792702  0.3584546732124281  0.5074245608189329
  0.3584546732124281  0.9914710183331579  0.5074245608189329
  0.0085289816668421  0.3669836548792702  0.5074245608189329
  0.3584546732124281  0.3669836548792702  0.0074245608189329
  0.0085289816668421  0.6415453267875790  0.0074245608189329
  0.9914710183331579  0.3584546732124281  0.0074245608189329
  0.3669836548792702  0.0085289816668421  0.0074245608189329
  0.5864509261804542  0.4322452032368673  0.0115592036981695
  0.5864509261804542  0.1542057229435798  0.5115592036981695
  0.4322452032368673  0.5864509261804542  0.5115592036981695
  0.8457942770564202  0.4322452032368673  0.5115592036981695
  0.4322452032368673  0.8457942770564202  0.0115592036981695
  0.5677547967631327  0.4135490738195458  0.5115592036981695
  0.4135490738195458  0.8457942770564202  0.5115592036981695
  0.1542057229435798  0.5677547967631327  0.5115592036981695
  0.4135490738195458  0.5677547967631327  0.0115592036981695
  0.1542057229435798  0.5864509261804542  0.0115592036981695
  0.8457942770564202  0.4135490738195458  0.0115592036981695
  0.5677547967631327  0.1542057229435798  0.0115592036981695
 
  0.00000000E+00  0.00000000E+00  0.00000000E+00
  0.00000000E+00  0.00000000E+00  0.00000000E+00
  0.00000000E+00  0.00000000E+00  0.00000000E+00
  0.00000000E+00  0.00000000E+00  0.00000000E+00
  0.00000000E+00  0.00000000E+00  0.00000000E+00
  0.00000000E+00  0.00000000E+00  0.00000000E+00
  0.00000000E+00  0.00000000E+00  0.00000000E+00
  0.00000000E+00  0.00000000E+00  0.00000000E+00
  0.00000000E+00  0.00000000E+00  0.00000000E+00
  0.00000000E+00  0.00000000E+00  0.00000000E+00
  0.00000000E+00  0.00000000E+00  0.00000000E+00
  0.00000000E+00  0.00000000E+00  0.00000000E+00
  0.00000000E+00  0.00000000E+00  0.00000000E+00
  0.00000000E+00  0.00000000E+00  0.00000000E+00
  0.00000000E+00  0.00000000E+00  0.00000000E+00
  0.00000000E+00  0.00000000E+00  0.00000000E+00
  0.00000000E+00  0.00000000E+00  0.00000000E+00
  0.00000000E+00  0.00000000E+00  0.00000000E+00
  0.00000000E+00  0.00000000E+00  0.00000000E+00
  0.00000000E+00  0.00000000E+00  0.00000000E+00
  0.00000000E+00  0.00000000E+00  0.00000000E+00
  0.00000000E+00  0.00000000E+00  0.00000000E+00
  0.00000000E+00  0.00000000E+00  0.00000000E+00
  0.00000000E+00  0.00000000E+00  0.00000000E+00
  0.00000000E+00  0.00000000E+00  0.00000000E+00
  0.00000000E+00  0.00000000E+00  0.00000000E+00
  0.00000000E+00  0.00000000E+00  0.00000000E+00
  0.00000000E+00  0.00000000E+00  0.00000000E+00
  0.00000000E+00  0.00000000E+00  0.00000000E+00
  0.00000000E+00  0.00000000E+00  0.00000000E+00
  0.00000000E+00  0.00000000E+00  0.00000000E+00
  0.00000000E+00  0.00000000E+00  0.00000000E+00
  0.00000000E+00  0.00000000E+00  0.00000000E+00
  0.00000000E+00  0.00000000E+00  0.00000000E+00
  0.00000000E+00  0.00000000E+00  0.00000000E+00
  0.00000000E+00  0.00000000E+00  0.00000000E+00
  0.00000000E+00  0.00000000E+00  0.00000000E+00
  0.00000000E+00  0.00000000E+00  0.00000000E+00
  0.00000000E+00  0.00000000E+00  0.00000000E+00
  0.00000000E+00  0.00000000E+00  0.00000000E+00
  0.00000000E+00  0.00000000E+00  0.00000000E+00
  0.00000000E+00  0.00000000E+00  0.00000000E+00
  0.00000000E+00  0.00000000E+00  0.00000000E+00
  0.00000000E+00  0.00000000E+00  0.00000000E+00
  0.00000000E+00  0.00000000E+00  0.00000000E+00
  0.00000000E+00  0.00000000E+00  0.00000000E+00
  0.00000000E+00  0.00000000E+00  0.00000000E+00
  0.00000000E+00  0.00000000E+00  0.00000000E+00
  0.00000000E+00  0.00000000E+00  0.00000000E+00
  0.00000000E+00  0.00000000E+00  0.00000000E+00
  0.00000000E+00  0.00000000E+00  0.00000000E+00
  0.00000000E+00  0.00000000E+00  0.00000000E+00
  0.00000000E+00  0.00000000E+00  0.00000000E+00
  0.00000000E+00  0.00000000E+00  0.00000000E+00
  0.00000000E+00  0.00000000E+00  0.00000000E+00
  0.00000000E+00  0.00000000E+00  0.00000000E+00
  0.00000000E+00  0.00000000E+00  0.00000000E+00
  0.00000000E+00  0.00000000E+00  0.00000000E+00
  0.00000000E+00  0.00000000E+00  0.00000000E+00
  0.00000000E+00  0.00000000E+00  0.00000000E+00
  0.00000000E+00  0.00000000E+00  0.00000000E+00
  0.00000000E+00  0.00000000E+00  0.00000000E+00
  0.00000000E+00  0.00000000E+00  0.00000000E+00
  0.00000000E+00  0.00000000E+00  0.00000000E+00
  0.00000000E+00  0.00000000E+00  0.00000000E+00
  0.00000000E+00  0.00000000E+00  0.00000000E+00
  0.00000000E+00  0.00000000E+00  0.00000000E+00
  0.00000000E+00  0.00000000E+00  0.00000000E+00
  0.00000000E+00  0.00000000E+00  0.00000000E+00
  0.00000000E+00  0.00000000E+00  0.00000000E+00
  0.00000000E+00  0.00000000E+00  0.00000000E+00
  0.00000000E+00  0.00000000E+00  0.00000000E+00
