P Zn Fe O H                              100078
   1.00000000000000     
    10.3627692104070057    0.0000000000000000   -0.0542721749842850
     0.0000000000000000    4.9957149496304707    0.0000000000000000
    -5.4151779969960883    0.0000000000000000    8.9726781491474625
   P    Zn   Fe   O    H 
     4     4     2    24    16
Direct
  0.6880419794944501  0.7163615102109517  0.5013739507725390
  0.3119580205055499  0.2836384897890483  0.4986260492274610
  0.3119580205055499  0.2163615102109517  0.9986260492274610
  0.6880419794944501  0.7836384897890483  0.0013739507725390
  0.4995459383622816  0.6942254974591293  0.1466380723686882
  0.5004540616377184  0.3057745025408707  0.8533619276313118
  0.5004540616377184  0.1942254974591293  0.3533619276313118
  0.4995459383622816  0.8057745025408707  0.6466380723686882
  0.0000000000000000  0.0000000000000000  0.0000000000000000
  0.0000000000000000  0.5000000000000000  0.5000000000000000
  0.9776953065472398  0.6841738398036838  0.8539970311068998
  0.0223046934527602  0.3158261601963162  0.1460029688931002
  0.0223046934527602  0.1841738398036838  0.6460029688931002
  0.9776953065472398  0.8158261601963162  0.3539970311068998
  0.1795046708335590  0.7110608992203495  0.6699322839090769
  0.8204953291664410  0.2889391007796505  0.3300677160909231
  0.8204953291664410  0.2110608992203566  0.8300677160909231
  0.1795046708335590  0.7889391007796505  0.1699322839090769
  0.8580248483957860  0.7450223081708245  0.5555248834940087
  0.1419751516042140  0.2549776918291755  0.4444751165059913
  0.1419751516042140  0.2450223081708245  0.9444751165059913
  0.8580248483957860  0.7549776918291755  0.0555248834940087
  0.3534460969538884  0.9225195999885543  0.0055812729409652
  0.6465539030461116  0.0774804000114457  0.9944187270590348
  0.6465539030461116  0.4225195999885543  0.4944187270590348
  0.3534460969538884  0.5774804000114457  0.5055812729409652
  0.6579554818517011  0.8758260318008553  0.6102860401235972
  0.3420445181482989  0.1241739681991447  0.3897139598764028
  0.3420445181482989  0.3758260318008553  0.8897139598764028
  0.6579554818517011  0.6241739681991447  0.1102860401235972
  0.5860442827693291  0.8528833474856654  0.3432218338251403
  0.4139557172306709  0.1471166525143346  0.6567781661748597
  0.4139557172306709  0.3528833474856654  0.1567781661748597
  0.5860442827693291  0.6471166525143346  0.8432218338251403
  0.9437435720927141  0.7106517392838114  0.7459932343442901
  0.0562564279072859  0.2893482607161886  0.2540067656557099
  0.0562564279072859  0.2106517392838114  0.7540067656557099
  0.9437435720927141  0.7893482607161886  0.2459932343442901
  0.0576982423122985  0.5400769713899223  0.8958503777931739
  0.9423017576877015  0.4599230286100777  0.1041496222068190
  0.9423017576877015  0.0400769713899223  0.6041496222068261
  0.0576982423122985  0.9599230286100777  0.3958503777931810
  0.2416817258032324  0.6228972879643777  0.7697393823142491
  0.7583182741967676  0.3771027120356223  0.2302606176857509
  0.7583182741967676  0.1228972879643777  0.7302606176857509
  0.2416817258032324  0.8771027120356223  0.2697393823142491
  0.1587476592470054  0.8998230445768058  0.6816710046834018
  0.8412523407529946  0.1001769554231942  0.3183289953165982
  0.8412523407529946  0.3998230445768129  0.8183289953165982
  0.1587476592470054  0.6001769554231942  0.1816710046834018
 
  0.00000000E+00  0.00000000E+00  0.00000000E+00
  0.00000000E+00  0.00000000E+00  0.00000000E+00
  0.00000000E+00  0.00000000E+00  0.00000000E+00
  0.00000000E+00  0.00000000E+00  0.00000000E+00
  0.00000000E+00  0.00000000E+00  0.00000000E+00
  0.00000000E+00  0.00000000E+00  0.00000000E+00
  0.00000000E+00  0.00000000E+00  0.00000000E+00
  0.00000000E+00  0.00000000E+00  0.00000000E+00
  0.00000000E+00  0.00000000E+00  0.00000000E+00
  0.00000000E+00  0.00000000E+00  0.00000000E+00
  0.00000000E+00  0.00000000E+00  0.00000000E+00
  0.00000000E+00  0.00000000E+00  0.00000000E+00
  0.00000000E+00  0.00000000E+00  0.00000000E+00
  0.00000000E+00  0.00000000E+00  0.00000000E+00
  0.00000000E+00  0.00000000E+00  0.00000000E+00
  0.00000000E+00  0.00000000E+00  0.00000000E+00
  0.00000000E+00  0.00000000E+00  0.00000000E+00
  0.00000000E+00  0.00000000E+00  0.00000000E+00
  0.00000000E+00  0.00000000E+00  0.00000000E+00
  0.00000000E+00  0.00000000E+00  0.00000000E+00
  0.00000000E+00  0.00000000E+00  0.00000000E+00
  0.00000000E+00  0.00000000E+00  0.00000000E+00
  0.00000000E+00  0.00000000E+00  0.00000000E+00
  0.00000000E+00  0.00000000E+00  0.00000000E+00
  0.00000000E+00  0.00000000E+00  0.00000000E+00
  0.00000000E+00  0.00000000E+00  0.00000000E+00
  0.00000000E+00  0.00000000E+00  0.00000000E+00
  0.00000000E+00  0.00000000E+00  0.00000000E+00
  0.00000000E+00  0.00000000E+00  0.00000000E+00
  0.00000000E+00  0.00000000E+00  0.00000000E+00
  0.00000000E+00  0.00000000E+00  0.00000000E+00
  0.00000000E+00  0.00000000E+00  0.00000000E+00
  0.00000000E+00  0.00000000E+00  0.00000000E+00
  0.00000000E+00  0.00000000E+00  0.00000000E+00
  0.00000000E+00  0.00000000E+00  0.00000000E+00
  0.00000000E+00  0.00000000E+00  0.00000000E+00
  0.00000000E+00  0.00000000E+00  0.00000000E+00
  0.00000000E+00  0.00000000E+00  0.00000000E+00
  0.00000000E+00  0.00000000E+00  0.00000000E+00
  0.00000000E+00  0.00000000E+00  0.00000000E+00
  0.00000000E+00  0.00000000E+00  0.00000000E+00
  0.00000000E+00  0.00000000E+00  0.00000000E+00
  0.00000000E+00  0.00000000E+00  0.00000000E+00
  0.00000000E+00  0.00000000E+00  0.00000000E+00
  0.00000000E+00  0.00000000E+00  0.00000000E+00
  0.00000000E+00  0.00000000E+00  0.00000000E+00
  0.00000000E+00  0.00000000E+00  0.00000000E+00
  0.00000000E+00  0.00000000E+00  0.00000000E+00
  0.00000000E+00  0.00000000E+00  0.00000000E+00
  0.00000000E+00  0.00000000E+00  0.00000000E+00
