Si O                                     170533
   1.00000000000000     
     4.5103328524782951    0.0000000000000000    0.0000000000000000
     0.0000000000000000    8.1241704373319550    0.0000000000000000
     0.0000000000000000    0.0000000000000000    9.4724879933100254
   Si   O 
     8    16
Direct
  0.2015791006723973  0.1674605119320063  0.0981340981123537
  0.7015791006723973  0.6674605119320134  0.4018659018876463
  0.2015791006723973  0.8325394880679866  0.9018659018876463
  0.2984208993276027  0.6674605119320134  0.5981340981123537
  0.2984208993276027  0.3325394880679866  0.4018659018876463
  0.7984208993276027  0.1674605119320063  0.9018659018876463
  0.7015791006723973  0.3325394880679866  0.5981340981123537
  0.7984208993276027  0.8325394880679866  0.0981340981123537
  0.0000000000000000  0.2880657796804087  0.0000000000000000
  0.5000000000000000  0.7880657796804087  0.5000000000000000
  0.0000000000000000  0.7119342203195913  0.0000000000000000
  0.5000000000000000  0.2119342203195913  0.5000000000000000
  0.0000000000000000  0.0000000000000000  0.1347937778573751
  0.5000000000000000  0.5000000000000000  0.3652062221426249
  0.0000000000000000  0.0000000000000000  0.8652062221426249
  0.5000000000000000  0.5000000000000000  0.6347937778573751
  0.5000000000000000  0.1504756412482422  0.0000000000000000
  0.0000000000000000  0.6504756412482422  0.5000000000000000
  0.5000000000000000  0.8495243587517578  0.0000000000000000
  0.0000000000000000  0.3495243587517578  0.5000000000000000
  0.2500000000000000  0.2500000000000000  0.2500000000000000
  0.7500000000000000  0.7500000000000000  0.2500000000000000
  0.2500000000000000  0.7500000000000000  0.7500000000000000
  0.7500000000000000  0.2500000000000000  0.7500000000000000
 
  0.00000000E+00  0.00000000E+00  0.00000000E+00
  0.00000000E+00  0.00000000E+00  0.00000000E+00
  0.00000000E+00  0.00000000E+00  0.00000000E+00
  0.00000000E+00  0.00000000E+00  0.00000000E+00
  0.00000000E+00  0.00000000E+00  0.00000000E+00
  0.00000000E+00  0.00000000E+00  0.00000000E+00
  0.00000000E+00  0.00000000E+00  0.00000000E+00
  0.00000000E+00  0.00000000E+00  0.00000000E+00
  0.00000000E+00  0.00000000E+00  0.00000000E+00
  0.00000000E+00  0.00000000E+00  0.00000000E+00
  0.00000000E+00  0.00000000E+00  0.00000000E+00
  0.00000000E+00  0.00000000E+00  0.00000000E+00
  0.00000000E+00  0.00000000E+00  0.00000000E+00
  0.00000000E+00  0.00000000E+00  0.00000000E+00
  0.00000000E+00  0.00000000E+00  0.00000000E+00
  0.00000000E+00  0.00000000E+00  0.00000000E+00
  0.00000000E+00  0.00000000E+00  0.00000000E+00
  0.00000000E+00  0.00000000E+00  0.00000000E+00
  0.00000000E+00  0.00000000E+00  0.00000000E+00
  0.00000000E+00  0.00000000E+00  0.00000000E+00
  0.00000000E+00  0.00000000E+00  0.00000000E+00
  0.00000000E+00  0.00000000E+00  0.00000000E+00
  0.00000000E+00  0.00000000E+00  0.00000000E+00
  0.00000000E+00  0.00000000E+00  0.00000000E+00
