Co Sn Ce                                 102118
   1.00000000000000     
     9.5024627467752492    0.0000000000000000    0.0000000000000000
     0.0000000000000000    9.5024627467752492    0.0000000000000000
     0.0000000000000000    0.0000000000000000    9.5024627467752492
   Co   Sn   Ce
     8    26     6
Direct
  0.7500000000000000  0.7500000000000000  0.7500000000000000
  0.7500000000000000  0.2500000000000000  0.2500000000000000
  0.2500000000000000  0.2500000000000000  0.2500000000000000
  0.7500000000000000  0.2500000000000000  0.7500000000000000
  0.7500000000000000  0.7500000000000000  0.2500000000000000
  0.2500000000000000  0.7500000000000000  0.2500000000000000
  0.2500000000000000  0.2500000000000000  0.7500000000000000
  0.2500000000000000  0.7500000000000000  0.7500000000000000
  0.5000000000000000  0.5000000000000000  0.5000000000000000
  0.0000000000000000  0.0000000000000000  0.0000000000000000
  0.5000000000000000  0.8017515952519290  0.6582825710469962
  0.6582825710469962  0.5000000000000000  0.1982484047480710
  0.3017515952519290  0.0000000000000000  0.1582825710469962
  0.6982484047480710  0.0000000000000000  0.8417174289530038
  0.8417174289530038  0.6982484047480710  0.0000000000000000
  0.8017515952519290  0.3417174289530038  0.5000000000000000
  0.5000000000000000  0.8017515952519290  0.3417174289530038
  0.8017515952519290  0.6582825710469962  0.5000000000000000
  0.0000000000000000  0.8417174289530038  0.3017515952519290
  0.6582825710469962  0.5000000000000000  0.8017515952519290
  0.0000000000000000  0.1582825710469962  0.3017515952519290
  0.1982484047480710  0.3417174289530038  0.5000000000000000
  0.3417174289530038  0.5000000000000000  0.8017515952519290
  0.1582825710469962  0.6982484047480710  0.0000000000000000
  0.8417174289530038  0.3017515952519290  0.0000000000000000
  0.1982484047480710  0.6582825710469962  0.5000000000000000
  0.5000000000000000  0.1982484047480710  0.3417174289530038
  0.1582825710469962  0.3017515952519290  0.0000000000000000
  0.0000000000000000  0.8417174289530038  0.6982484047480710
  0.3417174289530038  0.5000000000000000  0.1982484047480710
  0.0000000000000000  0.1582825710469962  0.6982484047480710
  0.6982484047480710  0.0000000000000000  0.1582825710469962
  0.3017515952519290  0.0000000000000000  0.8417174289530038
  0.5000000000000000  0.1982484047480710  0.6582825710469962
  0.7500000000000000  0.0000000000000000  0.5000000000000000
  0.5000000000000000  0.2500000000000000  0.0000000000000000
  0.0000000000000000  0.5000000000000000  0.7500000000000000
  0.0000000000000000  0.5000000000000000  0.2500000000000000
  0.5000000000000000  0.7500000000000000  0.0000000000000000
  0.2500000000000000  0.0000000000000000  0.5000000000000000
 
  0.00000000E+00  0.00000000E+00  0.00000000E+00
  0.00000000E+00  0.00000000E+00  0.00000000E+00
  0.00000000E+00  0.00000000E+00  0.00000000E+00
  0.00000000E+00  0.00000000E+00  0.00000000E+00
  0.00000000E+00  0.00000000E+00  0.00000000E+00
  0.00000000E+00  0.00000000E+00  0.00000000E+00
  0.00000000E+00  0.00000000E+00  0.00000000E+00
  0.00000000E+00  0.00000000E+00  0.00000000E+00
  0.00000000E+00  0.00000000E+00  0.00000000E+00
  0.00000000E+00  0.00000000E+00  0.00000000E+00
  0.00000000E+00  0.00000000E+00  0.00000000E+00
  0.00000000E+00  0.00000000E+00  0.00000000E+00
  0.00000000E+00  0.00000000E+00  0.00000000E+00
  0.00000000E+00  0.00000000E+00  0.00000000E+00
  0.00000000E+00  0.00000000E+00  0.00000000E+00
  0.00000000E+00  0.00000000E+00  0.00000000E+00
  0.00000000E+00  0.00000000E+00  0.00000000E+00
  0.00000000E+00  0.00000000E+00  0.00000000E+00
  0.00000000E+00  0.00000000E+00  0.00000000E+00
  0.00000000E+00  0.00000000E+00  0.00000000E+00
  0.00000000E+00  0.00000000E+00  0.00000000E+00
  0.00000000E+00  0.00000000E+00  0.00000000E+00
  0.00000000E+00  0.00000000E+00  0.00000000E+00
  0.00000000E+00  0.00000000E+00  0.00000000E+00
  0.00000000E+00  0.00000000E+00  0.00000000E+00
  0.00000000E+00  0.00000000E+00  0.00000000E+00
  0.00000000E+00  0.00000000E+00  0.00000000E+00
  0.00000000E+00  0.00000000E+00  0.00000000E+00
  0.00000000E+00  0.00000000E+00  0.00000000E+00
  0.00000000E+00  0.00000000E+00  0.00000000E+00
  0.00000000E+00  0.00000000E+00  0.00000000E+00
  0.00000000E+00  0.00000000E+00  0.00000000E+00
  0.00000000E+00  0.00000000E+00  0.00000000E+00
  0.00000000E+00  0.00000000E+00  0.00000000E+00
  0.00000000E+00  0.00000000E+00  0.00000000E+00
  0.00000000E+00  0.00000000E+00  0.00000000E+00
  0.00000000E+00  0.00000000E+00  0.00000000E+00
  0.00000000E+00  0.00000000E+00  0.00000000E+00
  0.00000000E+00  0.00000000E+00  0.00000000E+00
  0.00000000E+00  0.00000000E+00  0.00000000E+00
