Ca Sn O                                  100787
   1.00000000000000     
     4.7797440352876430    0.0000000000000000    0.0000000000000000
     0.0000000000000000    4.7797440352876430    0.0000000000000000
     0.0000000000000000    0.0000000000000000    4.7797440352876430
   Ca   Sn   O 
     3     1     1
Direct
  0.0000000000000000  0.5000000000000000  0.5000000000000000
  0.5000000000000000  0.5000000000000000  0.0000000000000000
  0.5000000000000000  0.0000000000000000  0.5000000000000000
  0.0000000000000000  0.0000000000000000  0.0000000000000000
  0.5000000000000000  0.5000000000000000  0.5000000000000000
 
  0.00000000E+00  0.00000000E+00  0.00000000E+00
  0.00000000E+00  0.00000000E+00  0.00000000E+00
  0.00000000E+00  0.00000000E+00  0.00000000E+00
  0.00000000E+00  0.00000000E+00  0.00000000E+00
  0.00000000E+00  0.00000000E+00  0.00000000E+00
