K Cd                                     102002
   1.00000000000000     
     0.0000000000000000    6.8278100663958776    6.8278100663958767
     6.8278100663958776    0.0000000000000000    6.8278100663958767
     6.8278100663958776    6.8278100663958776    0.0000000000000000
   K    Cd
     2    26
Direct
  0.7500000000000000  0.7500000000000000  0.7500000000000000
  0.2500000000000000  0.2500000000000000  0.2500000000000000
  0.0000000000000000  0.0000000000000000  0.0000000000000000
  0.5000000000000000  0.5000000000000000  0.5000000000000000
  0.9399651796382713  0.3011297209249477  0.6988702790750523
  0.4399651796382713  0.8011297209249477  0.5600348203617287
  0.1988702790750523  0.5600348203617287  0.8011297209249477
  0.8011297209249477  0.5600348203617287  0.4399651796382713
  0.5600348203617287  0.1988702790750523  0.4399651796382713
  0.4399651796382713  0.1988702790750523  0.8011297209249477
  0.8011297209249477  0.1988702790750523  0.5600348203617287
  0.5600348203617287  0.4399651796382713  0.8011297209249477
  0.1988702790750523  0.8011297209249477  0.4399651796382713
  0.1988702790750523  0.4399651796382713  0.5600348203617287
  0.5600348203617287  0.8011297209249477  0.1988702790750523
  0.3011297209249477  0.0600348203617287  0.6988702790750523
  0.0600348203617287  0.6988702790750523  0.3011297209249477
  0.0600348203617287  0.9399651796382713  0.6988702790750523
  0.6988702790750523  0.9399651796382713  0.3011297209249477
  0.4399651796382713  0.5600348203617287  0.1988702790750523
  0.8011297209249477  0.4399651796382713  0.1988702790750523
  0.6988702790750523  0.3011297209249477  0.0600348203617287
  0.9399651796382713  0.0600348203617287  0.3011297209249477
  0.0600348203617287  0.3011297209249477  0.9399651796382713
  0.9399651796382713  0.6988702790750523  0.0600348203617287
  0.3011297209249477  0.9399651796382713  0.0600348203617287
  0.3011297209249477  0.6988702790750523  0.9399651796382713
  0.6988702790750523  0.0600348203617287  0.9399651796382713
 
  0.00000000E+00  0.00000000E+00  0.00000000E+00
  0.00000000E+00  0.00000000E+00  0.00000000E+00
  0.00000000E+00  0.00000000E+00  0.00000000E+00
  0.00000000E+00  0.00000000E+00  0.00000000E+00
  0.00000000E+00  0.00000000E+00  0.00000000E+00
  0.00000000E+00  0.00000000E+00  0.00000000E+00
  0.00000000E+00  0.00000000E+00  0.00000000E+00
  0.00000000E+00  0.00000000E+00  0.00000000E+00
  0.00000000E+00  0.00000000E+00  0.00000000E+00
  0.00000000E+00  0.00000000E+00  0.00000000E+00
  0.00000000E+00  0.00000000E+00  0.00000000E+00
  0.00000000E+00  0.00000000E+00  0.00000000E+00
  0.00000000E+00  0.00000000E+00  0.00000000E+00
  0.00000000E+00  0.00000000E+00  0.00000000E+00
  0.00000000E+00  0.00000000E+00  0.00000000E+00
  0.00000000E+00  0.00000000E+00  0.00000000E+00
  0.00000000E+00  0.00000000E+00  0.00000000E+00
  0.00000000E+00  0.00000000E+00  0.00000000E+00
  0.00000000E+00  0.00000000E+00  0.00000000E+00
  0.00000000E+00  0.00000000E+00  0.00000000E+00
  0.00000000E+00  0.00000000E+00  0.00000000E+00
  0.00000000E+00  0.00000000E+00  0.00000000E+00
  0.00000000E+00  0.00000000E+00  0.00000000E+00
  0.00000000E+00  0.00000000E+00  0.00000000E+00
  0.00000000E+00  0.00000000E+00  0.00000000E+00
  0.00000000E+00  0.00000000E+00  0.00000000E+00
  0.00000000E+00  0.00000000E+00  0.00000000E+00
  0.00000000E+00  0.00000000E+00  0.00000000E+00
