Ca B Al O                                10245
   1.00000000000000     
     5.8632100351230179   -3.9735668692600630    0.0000000000000000
     5.8632100351230179    3.9735668692600630    0.0000000000000000
     0.0000000000000000    0.0000000000000000    4.3752391250501956
   Ca   B    Al   O 
     2     6     2    14
Direct
  0.5000000000000000  0.5000000000000000  0.0000000000000000
  0.0000000000000000  0.0000000000000000  0.0000000000000000
  0.7500000000000000  0.7500000000000000  0.5000000000000000
  0.2500000000000000  0.2500000000000000  0.5000000000000000
  0.8633044407661501  0.3633044407661501  0.4567676299694554
  0.6366955592338499  0.1366955592338499  0.4567676299694554
  0.3633044407661501  0.8633044407661501  0.5432323700305446
  0.1366955592338499  0.6366955592338499  0.5432323700305446
  0.0000000000000000  0.5000000000000000  0.0000000000000000
  0.5000000000000000  0.0000000000000000  0.0000000000000000
  0.7500000000000000  0.2500000000000000  0.3258293311133258
  0.2500000000000000  0.7500000000000000  0.6741706688866742
  0.8680727281516738  0.3680727281516738  0.7763126920580277
  0.6319272718483262  0.1319272718483262  0.7763126920580277
  0.3680727281516738  0.8680727281516738  0.2236873079419723
  0.1319272718483262  0.6319272718483262  0.2236873079419723
  0.7799707729085981  0.5736170424649032  0.2992149584273847
  0.4263829575350968  0.2200292270914019  0.2992149584273847
  0.7200292270914019  0.9263829575350968  0.2992149584273847
  0.5736170424649032  0.7799707729085981  0.7007850415726153
  0.0736170424649032  0.2799707729085981  0.2992149584273847
  0.2799707729085981  0.0736170424649032  0.7007850415726153
  0.2200292270914019  0.4263829575350968  0.7007850415726153
  0.9263829575350968  0.7200292270914019  0.7007850415726153
 
  0.00000000E+00  0.00000000E+00  0.00000000E+00
  0.00000000E+00  0.00000000E+00  0.00000000E+00
  0.00000000E+00  0.00000000E+00  0.00000000E+00
  0.00000000E+00  0.00000000E+00  0.00000000E+00
  0.00000000E+00  0.00000000E+00  0.00000000E+00
  0.00000000E+00  0.00000000E+00  0.00000000E+00
  0.00000000E+00  0.00000000E+00  0.00000000E+00
  0.00000000E+00  0.00000000E+00  0.00000000E+00
  0.00000000E+00  0.00000000E+00  0.00000000E+00
  0.00000000E+00  0.00000000E+00  0.00000000E+00
  0.00000000E+00  0.00000000E+00  0.00000000E+00
  0.00000000E+00  0.00000000E+00  0.00000000E+00
  0.00000000E+00  0.00000000E+00  0.00000000E+00
  0.00000000E+00  0.00000000E+00  0.00000000E+00
  0.00000000E+00  0.00000000E+00  0.00000000E+00
  0.00000000E+00  0.00000000E+00  0.00000000E+00
  0.00000000E+00  0.00000000E+00  0.00000000E+00
  0.00000000E+00  0.00000000E+00  0.00000000E+00
  0.00000000E+00  0.00000000E+00  0.00000000E+00
  0.00000000E+00  0.00000000E+00  0.00000000E+00
  0.00000000E+00  0.00000000E+00  0.00000000E+00
  0.00000000E+00  0.00000000E+00  0.00000000E+00
  0.00000000E+00  0.00000000E+00  0.00000000E+00
  0.00000000E+00  0.00000000E+00  0.00000000E+00
