C Au N                                   165173
   1.00000000000000     
     3.3638528586290315    0.0000000000000000    0.0000000000000000
    -1.6819264293145157    2.9131820301656446    0.0000000000000000
     0.0000000000000000    0.0000000000000000    5.0541932416553612
   C    Au   N 
     1     1     1
Direct
  0.0000000000000000  0.0000000000000000  0.3831582899166435
  0.0000000000000000  0.0000000000000000  0.0032080004547623
  0.0000000000000000  0.0000000000000000  0.6136337096286155
 
  0.00000000E+00  0.00000000E+00  0.00000000E+00
  0.00000000E+00  0.00000000E+00  0.00000000E+00
  0.00000000E+00  0.00000000E+00  0.00000000E+00
