Ba Cu F                                  100028
   1.00000000000000     
     7.7567358969770046   -2.9283156508576362    0.0000000000000000
     7.7567358969770046    2.9283156508576362    0.0000000000000000
     0.0000000000000000    0.0000000000000000    5.8773916964308164
   Ba   Cu   F 
     4     2    12
Direct
  0.3515607113005217  0.3515607113005217  0.0000000000000000
  0.1484392886994783  0.1484392886994783  0.5000000000000000
  0.6484392886994783  0.6484392886994783  0.0000000000000000
  0.8515607113005217  0.8515607113005217  0.5000000000000000
  0.0000000000000000  0.0000000000000000  0.0000000000000000
  0.5000000000000000  0.5000000000000000  0.5000000000000000
  0.9994194198506818  0.5005805801493182  0.7500000000000000
  0.5005805801493182  0.9994194198506818  0.2500000000000000
  0.4994194198506818  0.0005805801493182  0.7500000000000000
  0.0005805801493182  0.4994194198506818  0.2500000000000000
  0.7438941767699916  0.2561058232300084  0.7204323692641736
  0.7561058232300084  0.2438941767699916  0.2204323692641736
  0.2438941767699916  0.7561058232300084  0.7795676307358264
  0.2561058232300084  0.7438941767699916  0.2795676307358264
  0.1200982417282788  0.1200982417282788  0.0000000000000000
  0.3799017582717212  0.3799017582717212  0.5000000000000000
  0.8799017582717212  0.8799017582717212  0.0000000000000000
  0.6200982417282788  0.6200982417282788  0.5000000000000000
 
  0.00000000E+00  0.00000000E+00  0.00000000E+00
  0.00000000E+00  0.00000000E+00  0.00000000E+00
  0.00000000E+00  0.00000000E+00  0.00000000E+00
  0.00000000E+00  0.00000000E+00  0.00000000E+00
  0.00000000E+00  0.00000000E+00  0.00000000E+00
  0.00000000E+00  0.00000000E+00  0.00000000E+00
  0.00000000E+00  0.00000000E+00  0.00000000E+00
  0.00000000E+00  0.00000000E+00  0.00000000E+00
  0.00000000E+00  0.00000000E+00  0.00000000E+00
  0.00000000E+00  0.00000000E+00  0.00000000E+00
  0.00000000E+00  0.00000000E+00  0.00000000E+00
  0.00000000E+00  0.00000000E+00  0.00000000E+00
  0.00000000E+00  0.00000000E+00  0.00000000E+00
  0.00000000E+00  0.00000000E+00  0.00000000E+00
  0.00000000E+00  0.00000000E+00  0.00000000E+00
  0.00000000E+00  0.00000000E+00  0.00000000E+00
  0.00000000E+00  0.00000000E+00  0.00000000E+00
  0.00000000E+00  0.00000000E+00  0.00000000E+00
