Fe O                                     108905
   1.00000000000000     
    -4.7067429256077293    4.7067429256077293    4.7067429256077293
     4.7067429256077293   -4.7067429256077293    4.7067429256077293
     4.7067429256077293    4.7067429256077293   -4.7067429256077293
   Fe   O 
    16    24
Direct
  0.0000000000000000  0.5000000000000000  0.0000000000000000
  0.5000000000000000  0.5000000000000000  0.5000000000000000
  0.5000000000000000  0.0000000000000000  0.0000000000000000
  0.0000000000000000  0.0000000000000000  0.5000000000000000
  0.2889603635915279  0.5389603635915279  0.7500000000000000
  0.7889603635915279  0.0389603635915279  0.7500000000000000
  0.4610396364084721  0.2500000000000000  0.7110396364084721
  0.5389603635915279  0.7500000000000000  0.2889603635915279
  0.2500000000000000  0.2110396364084721  0.9610396364084721
  0.7110396364084721  0.4610396364084721  0.2500000000000000
  0.7500000000000000  0.7889603635915279  0.0389603635915279
  0.2110396364084721  0.9610396364084721  0.2500000000000000
  0.7500000000000000  0.2889603635915279  0.5389603635915279
  0.9610396364084721  0.2500000000000000  0.2110396364084721
  0.0389603635915279  0.7500000000000000  0.7889603635915279
  0.2500000000000000  0.7110396364084721  0.4610396364084721
  0.2742645832627417  0.7341002299139419  0.2253238858903970
  0.7742645832627417  0.5489406973723447  0.5401643533487857
  0.2658997700860581  0.7746761141096030  0.7257354167372583
  0.0087763440235591  0.0489406973723447  0.2746761141096030
  0.0489406973723447  0.2746761141096030  0.0087763440235591
  0.0401643533487857  0.4912236559764409  0.7658997700860581
  0.9912236559764409  0.9510593026276553  0.7253238858903970
  0.5401643533487857  0.7742645832627417  0.5489406973723447
  0.4912236559764409  0.7658997700860581  0.0401643533487857
  0.5087763440235591  0.2341002299139419  0.9598356466512143
  0.2746761141096030  0.0087763440235591  0.0489406973723447
  0.7658997700860581  0.0401643533487857  0.4912236559764409
  0.5489406973723447  0.5401643533487857  0.7742645832627417
  0.2253238858903970  0.2742645832627417  0.7341002299139419
  0.7746761141096030  0.7257354167372583  0.2658997700860581
  0.4598356466512143  0.2257354167372583  0.4510593026276553
  0.7257354167372583  0.2658997700860581  0.7746761141096030
  0.7341002299139419  0.2253238858903970  0.2742645832627417
  0.2341002299139419  0.9598356466512143  0.5087763440235591
  0.2257354167372583  0.4510593026276553  0.4598356466512143
  0.9510593026276553  0.7253238858903970  0.9912236559764409
  0.7253238858903970  0.9912236559764409  0.9510593026276553
  0.9598356466512143  0.5087763440235591  0.2341002299139419
  0.4510593026276553  0.4598356466512143  0.2257354167372583
 
  0.00000000E+00  0.00000000E+00  0.00000000E+00
  0.00000000E+00  0.00000000E+00  0.00000000E+00
  0.00000000E+00  0.00000000E+00  0.00000000E+00
  0.00000000E+00  0.00000000E+00  0.00000000E+00
  0.00000000E+00  0.00000000E+00  0.00000000E+00
  0.00000000E+00  0.00000000E+00  0.00000000E+00
  0.00000000E+00  0.00000000E+00  0.00000000E+00
  0.00000000E+00  0.00000000E+00  0.00000000E+00
  0.00000000E+00  0.00000000E+00  0.00000000E+00
  0.00000000E+00  0.00000000E+00  0.00000000E+00
  0.00000000E+00  0.00000000E+00  0.00000000E+00
  0.00000000E+00  0.00000000E+00  0.00000000E+00
  0.00000000E+00  0.00000000E+00  0.00000000E+00
  0.00000000E+00  0.00000000E+00  0.00000000E+00
  0.00000000E+00  0.00000000E+00  0.00000000E+00
  0.00000000E+00  0.00000000E+00  0.00000000E+00
  0.00000000E+00  0.00000000E+00  0.00000000E+00
  0.00000000E+00  0.00000000E+00  0.00000000E+00
  0.00000000E+00  0.00000000E+00  0.00000000E+00
  0.00000000E+00  0.00000000E+00  0.00000000E+00
  0.00000000E+00  0.00000000E+00  0.00000000E+00
  0.00000000E+00  0.00000000E+00  0.00000000E+00
  0.00000000E+00  0.00000000E+00  0.00000000E+00
  0.00000000E+00  0.00000000E+00  0.00000000E+00
  0.00000000E+00  0.00000000E+00  0.00000000E+00
  0.00000000E+00  0.00000000E+00  0.00000000E+00
  0.00000000E+00  0.00000000E+00  0.00000000E+00
  0.00000000E+00  0.00000000E+00  0.00000000E+00
  0.00000000E+00  0.00000000E+00  0.00000000E+00
  0.00000000E+00  0.00000000E+00  0.00000000E+00
  0.00000000E+00  0.00000000E+00  0.00000000E+00
  0.00000000E+00  0.00000000E+00  0.00000000E+00
  0.00000000E+00  0.00000000E+00  0.00000000E+00
  0.00000000E+00  0.00000000E+00  0.00000000E+00
  0.00000000E+00  0.00000000E+00  0.00000000E+00
  0.00000000E+00  0.00000000E+00  0.00000000E+00
  0.00000000E+00  0.00000000E+00  0.00000000E+00
  0.00000000E+00  0.00000000E+00  0.00000000E+00
  0.00000000E+00  0.00000000E+00  0.00000000E+00
  0.00000000E+00  0.00000000E+00  0.00000000E+00
