Sb In                                    10021
   1.00000000000000     
     3.0241781016519336    0.0000000000000000    0.0000000000000000
     0.0000000000000000    6.0009514310987457    0.0000000000000000
     0.0000000000000000    0.0000000000000000    3.0631250870340474
   Sb   In
     1     1
Direct
  0.0000000000000000  0.5000000000000000  0.2526603173474697
  0.0000000000000000  0.0000000000000000  0.9973396826525303
 
  0.00000000E+00  0.00000000E+00  0.00000000E+00
  0.00000000E+00  0.00000000E+00  0.00000000E+00
