Ru Mg                                    104862
   1.00000000000000     
     6.8104351357037025    0.0000000000000000    0.0000000000000000
     0.0000000000000000    6.8104351357037025    0.0000000000000000
     0.0000000000000000    0.0000000000000000    6.8104351357037025
   Ru   Mg
     8    12
Direct
  0.0752224963976573  0.0752224963976573  0.0752224963976573
  0.9247775036023427  0.5752224963976573  0.4247775036023427
  0.3252224963976573  0.1747775036023427  0.8252224963976573
  0.4247775036023427  0.9247775036023427  0.5752224963976573
  0.6747775036023427  0.6747775036023427  0.6747775036023427
  0.5752224963976573  0.4247775036023427  0.9247775036023427
  0.1747775036023427  0.8252224963976573  0.3252224963976573
  0.8252224963976573  0.3252224963976573  0.1747775036023427
  0.1250000000000000  0.2054755714409069  0.4554755714409069
  0.5445244285590931  0.6250000000000000  0.2945244285590931
  0.3750000000000000  0.7945244285590931  0.9554755714409069
  0.4554755714409069  0.1250000000000000  0.2054755714409069
  0.2945244285590931  0.5445244285590931  0.6250000000000000
  0.2054755714409069  0.4554755714409069  0.1250000000000000
  0.6250000000000000  0.2945244285590931  0.5445244285590931
  0.0445244285590931  0.8750000000000000  0.7054755714409069
  0.7945244285590931  0.9554755714409069  0.3750000000000000
  0.9554755714409069  0.3750000000000000  0.7945244285590931
  0.8750000000000000  0.7054755714409069  0.0445244285590931
  0.7054755714409069  0.0445244285590931  0.8750000000000000
 
  0.00000000E+00  0.00000000E+00  0.00000000E+00
  0.00000000E+00  0.00000000E+00  0.00000000E+00
  0.00000000E+00  0.00000000E+00  0.00000000E+00
  0.00000000E+00  0.00000000E+00  0.00000000E+00
  0.00000000E+00  0.00000000E+00  0.00000000E+00
  0.00000000E+00  0.00000000E+00  0.00000000E+00
  0.00000000E+00  0.00000000E+00  0.00000000E+00
  0.00000000E+00  0.00000000E+00  0.00000000E+00
  0.00000000E+00  0.00000000E+00  0.00000000E+00
  0.00000000E+00  0.00000000E+00  0.00000000E+00
  0.00000000E+00  0.00000000E+00  0.00000000E+00
  0.00000000E+00  0.00000000E+00  0.00000000E+00
  0.00000000E+00  0.00000000E+00  0.00000000E+00
  0.00000000E+00  0.00000000E+00  0.00000000E+00
  0.00000000E+00  0.00000000E+00  0.00000000E+00
  0.00000000E+00  0.00000000E+00  0.00000000E+00
  0.00000000E+00  0.00000000E+00  0.00000000E+00
  0.00000000E+00  0.00000000E+00  0.00000000E+00
  0.00000000E+00  0.00000000E+00  0.00000000E+00
  0.00000000E+00  0.00000000E+00  0.00000000E+00
