Pb Ga Se                                 100780
   1.00000000000000     
     0.0000000000000000   10.7028959590296342   10.5864604977359562
     6.3516373045529191    0.0000000000000000   10.5864604977359562
     6.3516373045529191   10.7028959590296342    0.0000000000000000
   Pb   Ga   Se
     8    16    32
Direct
  0.7500000000000000  0.7500000000000000  0.7500000000000000
  0.5000000000000000  0.5000000000000000  0.5000000000000000
  0.2500000000000000  0.2500000000000000  0.2500000000000000
  0.0000000000000000  0.0000000000000000  0.0000000000000000
  0.0022127448471281  0.4977872551528719  0.0022127448471281
  0.2477872551528719  0.7522127448471281  0.2477872551528719
  0.4977872551528719  0.0022127448471281  0.4977872551528719
  0.7522127448471281  0.2477872551528719  0.7522127448471281
  0.1539984840993398  0.9876288149890300  0.5944871331360488
  0.6555128668639512  0.9861144322244186  0.0960015159006602
  0.9876288149890300  0.1539984840993398  0.2638855677755743
  0.2638855677755743  0.5944871331360488  0.9876288149890300
  0.5944871331360488  0.2638855677755743  0.1539984840993398
  0.2623711850109700  0.0960015159006602  0.9861144322244186
  0.9861144322244186  0.6555128668639512  0.2623711850109700
  0.0960015159006602  0.2623711850109700  0.6555128668639512
  0.5130587232657007  0.7590664786474690  0.2366221598686593
  0.0133778401313407  0.7587473617818219  0.7369412767342993
  0.7590664786474690  0.5130587232657007  0.4912526382181781
  0.4912526382181781  0.2366221598686593  0.7590664786474690
  0.2366221598686593  0.4912526382181781  0.5130587232657007
  0.4909335213525310  0.7369412767342993  0.7587473617818219
  0.7587473617818219  0.0133778401313407  0.4909335213525310
  0.7369412767342993  0.4909335213525310  0.0133778401313407
  0.7116535883638022  0.5390635784949325  0.7123763613130052
  0.5376236386869948  0.2130935281717470  0.5383464116361978
  0.5390635784949325  0.7116535883638022  0.0369064718282530
  0.0369064718282530  0.7123763613130052  0.5390635784949325
  0.7123763613130052  0.0369064718282530  0.7116535883638022
  0.7109364215050675  0.5383464116361978  0.2130935281717470
  0.2130935281717470  0.5376236386869948  0.7109364215050675
  0.5383464116361978  0.7109364215050675  0.5376236386869948
  0.2102419599204595  0.5382439344691292  0.2144339034004474
  0.0355660965995526  0.2129197977900432  0.0397580400795405
  0.5382439344691292  0.2102419599204595  0.0370802022099568
  0.0370802022099568  0.2144339034004474  0.5382439344691292
  0.2144339034004474  0.0370802022099568  0.2102419599204595
  0.7117560655308708  0.0397580400795405  0.2129197977900432
  0.2129197977900432  0.0355660965995526  0.7117560655308708
  0.0397580400795405  0.7117560655308708  0.0355660965995526
  0.7859527166036315  0.2782653501267589  0.9645594629889516
  0.2854405370110484  0.2787775297193349  0.4640472833963685
  0.2782653501267589  0.7859527166036315  0.9712224702806651
  0.9712224702806651  0.9645594629889516  0.2782653501267589
  0.9645594629889516  0.9712224702806651  0.7859527166036315
  0.9717346498732411  0.4640472833963685  0.2787775297193349
  0.2787775297193349  0.2854405370110484  0.9717346498732411
  0.4640472833963685  0.9717346498732411  0.2854405370110484
  0.4410045486802119  0.4763841580197905  0.3059562233575122
  0.9440437766424878  0.4733449300575074  0.8089954513197881
  0.4763841580197905  0.4410045486802119  0.7766550699424926
  0.7766550699424926  0.3059562233575122  0.4763841580197905
  0.3059562233575122  0.7766550699424926  0.4410045486802119
  0.7736158419802095  0.8089954513197881  0.4733449300575074
  0.4733449300575074  0.9440437766424878  0.7736158419802095
  0.8089954513197881  0.7736158419802095  0.9440437766424878
 
  0.00000000E+00  0.00000000E+00  0.00000000E+00
  0.00000000E+00  0.00000000E+00  0.00000000E+00
  0.00000000E+00  0.00000000E+00  0.00000000E+00
  0.00000000E+00  0.00000000E+00  0.00000000E+00
  0.00000000E+00  0.00000000E+00  0.00000000E+00
  0.00000000E+00  0.00000000E+00  0.00000000E+00
  0.00000000E+00  0.00000000E+00  0.00000000E+00
  0.00000000E+00  0.00000000E+00  0.00000000E+00
  0.00000000E+00  0.00000000E+00  0.00000000E+00
  0.00000000E+00  0.00000000E+00  0.00000000E+00
  0.00000000E+00  0.00000000E+00  0.00000000E+00
  0.00000000E+00  0.00000000E+00  0.00000000E+00
  0.00000000E+00  0.00000000E+00  0.00000000E+00
  0.00000000E+00  0.00000000E+00  0.00000000E+00
  0.00000000E+00  0.00000000E+00  0.00000000E+00
  0.00000000E+00  0.00000000E+00  0.00000000E+00
  0.00000000E+00  0.00000000E+00  0.00000000E+00
  0.00000000E+00  0.00000000E+00  0.00000000E+00
  0.00000000E+00  0.00000000E+00  0.00000000E+00
  0.00000000E+00  0.00000000E+00  0.00000000E+00
  0.00000000E+00  0.00000000E+00  0.00000000E+00
  0.00000000E+00  0.00000000E+00  0.00000000E+00
  0.00000000E+00  0.00000000E+00  0.00000000E+00
  0.00000000E+00  0.00000000E+00  0.00000000E+00
  0.00000000E+00  0.00000000E+00  0.00000000E+00
  0.00000000E+00  0.00000000E+00  0.00000000E+00
  0.00000000E+00  0.00000000E+00  0.00000000E+00
  0.00000000E+00  0.00000000E+00  0.00000000E+00
  0.00000000E+00  0.00000000E+00  0.00000000E+00
  0.00000000E+00  0.00000000E+00  0.00000000E+00
  0.00000000E+00  0.00000000E+00  0.00000000E+00
  0.00000000E+00  0.00000000E+00  0.00000000E+00
  0.00000000E+00  0.00000000E+00  0.00000000E+00
  0.00000000E+00  0.00000000E+00  0.00000000E+00
  0.00000000E+00  0.00000000E+00  0.00000000E+00
  0.00000000E+00  0.00000000E+00  0.00000000E+00
  0.00000000E+00  0.00000000E+00  0.00000000E+00
  0.00000000E+00  0.00000000E+00  0.00000000E+00
  0.00000000E+00  0.00000000E+00  0.00000000E+00
  0.00000000E+00  0.00000000E+00  0.00000000E+00
  0.00000000E+00  0.00000000E+00  0.00000000E+00
  0.00000000E+00  0.00000000E+00  0.00000000E+00
  0.00000000E+00  0.00000000E+00  0.00000000E+00
  0.00000000E+00  0.00000000E+00  0.00000000E+00
  0.00000000E+00  0.00000000E+00  0.00000000E+00
  0.00000000E+00  0.00000000E+00  0.00000000E+00
  0.00000000E+00  0.00000000E+00  0.00000000E+00
  0.00000000E+00  0.00000000E+00  0.00000000E+00
  0.00000000E+00  0.00000000E+00  0.00000000E+00
  0.00000000E+00  0.00000000E+00  0.00000000E+00
  0.00000000E+00  0.00000000E+00  0.00000000E+00
  0.00000000E+00  0.00000000E+00  0.00000000E+00
  0.00000000E+00  0.00000000E+00  0.00000000E+00
  0.00000000E+00  0.00000000E+00  0.00000000E+00
  0.00000000E+00  0.00000000E+00  0.00000000E+00
  0.00000000E+00  0.00000000E+00  0.00000000E+00
