H C N O Ti                               109867
   1.00000000000000     
     8.8917504408894281    0.0000000000000000    0.0000000000000000
    -4.4458752204447141    7.7004817659217304    0.0000000000000000
     0.0000000000000000    0.0000000000000000   11.0993675654994348
   H    C    N    O    Ti
    24    12     3    30     3
Direct
  0.1057228702453799  0.0807889433701376  0.0546139064687807
  0.8942771297546201  0.9750660731247649  0.6120527601978836
  0.9192110566298624  0.8942771297546201  0.2787194268645479
  0.9750660731247649  0.8942771297546201  0.7212805731354521
  0.0807889433701376  0.9750660731247649  0.3879472398021164
  0.0249339268752351  0.1057228702453799  0.7212805731354521
  0.1057228702453799  0.0249339268752351  0.6120527601978836
  0.0249339268752351  0.9192110566298624  0.9453860935312193
  0.8942771297546201  0.9192110566298624  0.0546139064687807
  0.0807889433701376  0.1057228702453799  0.2787194268645479
  0.9192110566298624  0.0249339268752351  0.3879472398021164
  0.9750660731247649  0.0807889433701376  0.9453860935312193
  0.7415609473211688  0.1027561999623359  0.4862389765569759
  0.2584390526788312  0.3611952526411670  0.1804276901096884
  0.8972438000376641  0.2584390526788312  0.8470943567763527
  0.3611952526411670  0.2584390526788312  0.1529056432236473
  0.1027561999623359  0.3611952526411670  0.8195723098903116
  0.6388047473588330  0.7415609473211688  0.1529056432236473
  0.7415609473211688  0.6388047473588330  0.1804276901096884
  0.6388047473588330  0.8972438000376641  0.5137610234430241
  0.2584390526788312  0.8972438000376641  0.4862389765569759
  0.1027561999623359  0.7415609473211688  0.8470943567763527
  0.8972438000376641  0.6388047473588330  0.8195723098903116
  0.3611952526411670  0.1027561999623359  0.5137610234430241
  0.6899556038643979  0.3799112077287958  0.5000000000000000
  0.3100443961356021  0.6899556038643979  0.1666666666666643
  0.6200887922712042  0.3100443961356021  0.8333333333333357
  0.6899556038643979  0.3100443961356021  0.1666666666666643
  0.3799112077287958  0.6899556038643979  0.8333333333333357
  0.3100443961356021  0.6200887922712042  0.5000000000000000
  0.7882669490077205  0.5765338980154482  0.5000000000000000
  0.2117330509922795  0.7882669490077205  0.1666666666666643
  0.4234661019845518  0.2117330509922795  0.8333333333333357
  0.7882669490077205  0.2117330509922795  0.1666666666666643
  0.5765338980154482  0.7882669490077205  0.8333333333333357
  0.2117330509922795  0.4234661019845518  0.5000000000000000
  0.0000000000000000  0.0000000000000000  0.0000000000000000
  0.0000000000000000  0.0000000000000000  0.6666666666666643
  0.0000000000000000  0.0000000000000000  0.3333333333333357
  0.7598053781457992  0.3081183435731205  0.4421944569130360
  0.2401946218542008  0.5483129654273213  0.2244722097536282
  0.6918816564268795  0.2401946218542008  0.8911388764202925
  0.5483129654273213  0.2401946218542008  0.1088611235797075
  0.3081183435731205  0.5483129654273213  0.7755277902463718
  0.4516870345726787  0.7598053781457992  0.1088611235797075
  0.7598053781457992  0.4516870345726787  0.2244722097536282
  0.4516870345726787  0.6918816564268795  0.5578055430869640
  0.2401946218542008  0.6918816564268795  0.4421944569130360
  0.3081183435731205  0.7598053781457992  0.8911388764202925
  0.6918816564268795  0.4516870345726787  0.7755277902463718
  0.5483129654273213  0.3081183435731205  0.5578055430869640
  0.9231693766736839  0.6512036965002679  0.4360793137434626
  0.0768306233263161  0.7280343198265911  0.2305873529232016
  0.3487963034997321  0.0768306233263161  0.8972540195898731
  0.7280343198265911  0.0768306233263161  0.1027459804101269
  0.6512036965002679  0.7280343198265911  0.7694126470767984
  0.2719656801734160  0.9231693766736839  0.1027459804101269
  0.9231693766736839  0.2719656801734160  0.2305873529232016
  0.2719656801734160  0.3487963034997321  0.5639206862565374
  0.0768306233263161  0.3487963034997321  0.4360793137434626
  0.6512036965002679  0.9231693766736839  0.8972540195898731
  0.3487963034997321  0.2719656801734160  0.7694126470767984
  0.7280343198265911  0.6512036965002679  0.5639206862565374
  0.7550502911695673  0.0000000000000000  0.5000000000000000
  0.2449497088304327  0.2449497088304327  0.1666666666666643
  0.0000000000000000  0.2449497088304327  0.8333333333333357
  0.7550502911695673  0.7550502911695673  0.1666666666666643
  0.2449497088304327  0.0000000000000000  0.5000000000000000
  0.0000000000000000  0.7550502911695673  0.8333333333333357
  0.0000000000000000  0.5000000000000000  0.3333333333333357
  0.5000000000000000  0.0000000000000000  0.0000000000000000
  0.5000000000000000  0.5000000000000000  0.6666666666666643
 
  0.00000000E+00  0.00000000E+00  0.00000000E+00
  0.00000000E+00  0.00000000E+00  0.00000000E+00
  0.00000000E+00  0.00000000E+00  0.00000000E+00
  0.00000000E+00  0.00000000E+00  0.00000000E+00
  0.00000000E+00  0.00000000E+00  0.00000000E+00
  0.00000000E+00  0.00000000E+00  0.00000000E+00
  0.00000000E+00  0.00000000E+00  0.00000000E+00
  0.00000000E+00  0.00000000E+00  0.00000000E+00
  0.00000000E+00  0.00000000E+00  0.00000000E+00
  0.00000000E+00  0.00000000E+00  0.00000000E+00
  0.00000000E+00  0.00000000E+00  0.00000000E+00
  0.00000000E+00  0.00000000E+00  0.00000000E+00
  0.00000000E+00  0.00000000E+00  0.00000000E+00
  0.00000000E+00  0.00000000E+00  0.00000000E+00
  0.00000000E+00  0.00000000E+00  0.00000000E+00
  0.00000000E+00  0.00000000E+00  0.00000000E+00
  0.00000000E+00  0.00000000E+00  0.00000000E+00
  0.00000000E+00  0.00000000E+00  0.00000000E+00
  0.00000000E+00  0.00000000E+00  0.00000000E+00
  0.00000000E+00  0.00000000E+00  0.00000000E+00
  0.00000000E+00  0.00000000E+00  0.00000000E+00
  0.00000000E+00  0.00000000E+00  0.00000000E+00
  0.00000000E+00  0.00000000E+00  0.00000000E+00
  0.00000000E+00  0.00000000E+00  0.00000000E+00
  0.00000000E+00  0.00000000E+00  0.00000000E+00
  0.00000000E+00  0.00000000E+00  0.00000000E+00
  0.00000000E+00  0.00000000E+00  0.00000000E+00
  0.00000000E+00  0.00000000E+00  0.00000000E+00
  0.00000000E+00  0.00000000E+00  0.00000000E+00
  0.00000000E+00  0.00000000E+00  0.00000000E+00
  0.00000000E+00  0.00000000E+00  0.00000000E+00
  0.00000000E+00  0.00000000E+00  0.00000000E+00
  0.00000000E+00  0.00000000E+00  0.00000000E+00
  0.00000000E+00  0.00000000E+00  0.00000000E+00
  0.00000000E+00  0.00000000E+00  0.00000000E+00
  0.00000000E+00  0.00000000E+00  0.00000000E+00
  0.00000000E+00  0.00000000E+00  0.00000000E+00
  0.00000000E+00  0.00000000E+00  0.00000000E+00
  0.00000000E+00  0.00000000E+00  0.00000000E+00
  0.00000000E+00  0.00000000E+00  0.00000000E+00
  0.00000000E+00  0.00000000E+00  0.00000000E+00
  0.00000000E+00  0.00000000E+00  0.00000000E+00
  0.00000000E+00  0.00000000E+00  0.00000000E+00
  0.00000000E+00  0.00000000E+00  0.00000000E+00
  0.00000000E+00  0.00000000E+00  0.00000000E+00
  0.00000000E+00  0.00000000E+00  0.00000000E+00
  0.00000000E+00  0.00000000E+00  0.00000000E+00
  0.00000000E+00  0.00000000E+00  0.00000000E+00
  0.00000000E+00  0.00000000E+00  0.00000000E+00
  0.00000000E+00  0.00000000E+00  0.00000000E+00
  0.00000000E+00  0.00000000E+00  0.00000000E+00
  0.00000000E+00  0.00000000E+00  0.00000000E+00
  0.00000000E+00  0.00000000E+00  0.00000000E+00
  0.00000000E+00  0.00000000E+00  0.00000000E+00
  0.00000000E+00  0.00000000E+00  0.00000000E+00
  0.00000000E+00  0.00000000E+00  0.00000000E+00
  0.00000000E+00  0.00000000E+00  0.00000000E+00
  0.00000000E+00  0.00000000E+00  0.00000000E+00
  0.00000000E+00  0.00000000E+00  0.00000000E+00
  0.00000000E+00  0.00000000E+00  0.00000000E+00
  0.00000000E+00  0.00000000E+00  0.00000000E+00
  0.00000000E+00  0.00000000E+00  0.00000000E+00
  0.00000000E+00  0.00000000E+00  0.00000000E+00
  0.00000000E+00  0.00000000E+00  0.00000000E+00
  0.00000000E+00  0.00000000E+00  0.00000000E+00
  0.00000000E+00  0.00000000E+00  0.00000000E+00
  0.00000000E+00  0.00000000E+00  0.00000000E+00
  0.00000000E+00  0.00000000E+00  0.00000000E+00
  0.00000000E+00  0.00000000E+00  0.00000000E+00
  0.00000000E+00  0.00000000E+00  0.00000000E+00
  0.00000000E+00  0.00000000E+00  0.00000000E+00
  0.00000000E+00  0.00000000E+00  0.00000000E+00
