H Li N                                   10354
   1.00000000000000     
    -2.4997135792399390    2.4997132724927837    4.9814484275772859
     2.4997135792399390   -2.4997132724927837    4.9814484275772859
     2.4997132724927837    2.4997135792399390   -4.9814484275772859
   H    Li   N 
     8     4     4
Direct
  0.0734370114381022  0.9607024258628059  0.6322084710638833
  0.3284939547989154  0.4412285403742047  0.3677915289361167
  0.0392975741371941  0.6715060452010846  0.1127345855752964
  0.5587714596257953  0.9265629885618978  0.8872654144247036
  0.7664128691143688  0.7177403417687813  0.2379844793283468
  0.4797558624404346  0.5284283897860220  0.7620155206716532
  0.2822596582312187  0.5202441375595583  0.0486725273455804
  0.4715716102139780  0.2335871308856312  0.9513274726544196
  0.0000000000000000  0.0000000000000000  0.0000000000000000
  0.7500000000000000  0.2500000000000000  0.5000000000000000
  0.5012205911730376  0.0012205911730376  0.5000000000000000
  0.9987794088269624  0.4987794088269624  0.5000000000000000
  0.8689622319631809  0.8863047077859676  0.5214178448588811
  0.3648868629270794  0.3475443871042856  0.4785821551411189
  0.1136952922140324  0.6351131370729206  0.9826575241772133
  0.6524556128957144  0.1310377680368191  0.0173424758227867
 
  0.00000000E+00  0.00000000E+00  0.00000000E+00
  0.00000000E+00  0.00000000E+00  0.00000000E+00
  0.00000000E+00  0.00000000E+00  0.00000000E+00
  0.00000000E+00  0.00000000E+00  0.00000000E+00
  0.00000000E+00  0.00000000E+00  0.00000000E+00
  0.00000000E+00  0.00000000E+00  0.00000000E+00
  0.00000000E+00  0.00000000E+00  0.00000000E+00
  0.00000000E+00  0.00000000E+00  0.00000000E+00
  0.00000000E+00  0.00000000E+00  0.00000000E+00
  0.00000000E+00  0.00000000E+00  0.00000000E+00
  0.00000000E+00  0.00000000E+00  0.00000000E+00
  0.00000000E+00  0.00000000E+00  0.00000000E+00
  0.00000000E+00  0.00000000E+00  0.00000000E+00
  0.00000000E+00  0.00000000E+00  0.00000000E+00
  0.00000000E+00  0.00000000E+00  0.00000000E+00
  0.00000000E+00  0.00000000E+00  0.00000000E+00
