I Cr Tl                                  15502
   1.00000000000000     
     6.2344859694638544   -6.4181252256097343    0.0000000000000000
     6.2344859694638544    6.4181252256097343    0.0000000000000000
     0.0000000000000000    0.0000000000000000    9.5127902235979320
   I    Cr   Tl
    12     2     8
Direct
  0.0000000000000000  0.5000000000000000  0.7124956190875196
  0.5000000000000000  0.0000000000000000  0.7875043809124804
  0.0000000000000000  0.5000000000000000  0.2875043809124804
  0.5000000000000000  0.0000000000000000  0.2124956190875196
  0.2914236610709082  0.6378493499448936  0.0000000000000000
  0.6378493499448936  0.2914236610709082  0.5000000000000000
  0.3621506500551064  0.7085763389290918  0.5000000000000000
  0.7085763389290918  0.3621506500551064  0.0000000000000000
  0.8523801763260295  0.8153463675838566  0.0000000000000000
  0.8153463675838566  0.8523801763260295  0.5000000000000000
  0.1846536324161434  0.1476198236739705  0.5000000000000000
  0.1476198236739705  0.1846536324161434  0.0000000000000000
  0.0000000000000000  0.5000000000000000  0.0000000000000000
  0.5000000000000000  0.0000000000000000  0.5000000000000000
  0.1395857627199391  0.8604142372800609  0.7500000000000000
  0.8604142372800609  0.1395857627199391  0.7500000000000000
  0.1395857627199391  0.8604142372800609  0.2500000000000000
  0.8604142372800609  0.1395857627199391  0.2500000000000000
  0.6463092821509235  0.6463092821509235  0.7500000000000000
  0.3536907178490765  0.3536907178490765  0.7500000000000000
  0.6463092821509235  0.6463092821509235  0.2500000000000000
  0.3536907178490765  0.3536907178490765  0.2500000000000000
 
  0.00000000E+00  0.00000000E+00  0.00000000E+00
  0.00000000E+00  0.00000000E+00  0.00000000E+00
  0.00000000E+00  0.00000000E+00  0.00000000E+00
  0.00000000E+00  0.00000000E+00  0.00000000E+00
  0.00000000E+00  0.00000000E+00  0.00000000E+00
  0.00000000E+00  0.00000000E+00  0.00000000E+00
  0.00000000E+00  0.00000000E+00  0.00000000E+00
  0.00000000E+00  0.00000000E+00  0.00000000E+00
  0.00000000E+00  0.00000000E+00  0.00000000E+00
  0.00000000E+00  0.00000000E+00  0.00000000E+00
  0.00000000E+00  0.00000000E+00  0.00000000E+00
  0.00000000E+00  0.00000000E+00  0.00000000E+00
  0.00000000E+00  0.00000000E+00  0.00000000E+00
  0.00000000E+00  0.00000000E+00  0.00000000E+00
  0.00000000E+00  0.00000000E+00  0.00000000E+00
  0.00000000E+00  0.00000000E+00  0.00000000E+00
  0.00000000E+00  0.00000000E+00  0.00000000E+00
  0.00000000E+00  0.00000000E+00  0.00000000E+00
  0.00000000E+00  0.00000000E+00  0.00000000E+00
  0.00000000E+00  0.00000000E+00  0.00000000E+00
  0.00000000E+00  0.00000000E+00  0.00000000E+00
  0.00000000E+00  0.00000000E+00  0.00000000E+00
