Na Mg Al F                               33511
   1.00000000000000     
    -3.5064430797985944    3.6288822707986066    5.0016915577989316
     3.5064430797985944   -3.6288822707986066    5.0016915577989316
     3.5064430797985944    3.6288822707986066   -5.0016915577989316
   Na   Mg   Al   F 
     4     2     2    14
Direct
  0.2495867575319011  0.4995867575319011  0.7500000000000000
  0.2504132424680989  0.0004132424680989  0.2500000000000000
  0.2500000000000000  0.9986651325440548  0.7486651325440548
  0.7500000000000000  0.5013348674559452  0.7513348674559452
  0.7498700448591151  0.4998700448591151  0.2500000000000000
  0.7501299551408849  0.0001299551408849  0.7500000000000000
  0.7500000000000000  0.9999809684095666  0.2499809684095666
  0.2500000000000000  0.5000190315904334  0.2500190315904334
  0.6334760505397981  0.2500000000000000  0.8834760505397981
  0.8665239494602019  0.7500000000000000  0.6165239494602019
  0.0610458702719683  0.0860627856718637  0.4742492658150752
  0.3881864801432116  0.4139372143281363  0.4749830846001046
  0.1118135198567884  0.5867966044568931  0.0257507341849248
  0.4389541297280317  0.9132033955431069  0.0250169153998954
  0.7960140863764096  0.3004574707464087  0.3704360035843948
  0.0699785328379932  0.1995425292535913  0.9955566156300080
  0.4300214671620068  0.4255780827920006  0.1295639964156052
  0.7039859136235904  0.0744219172079923  0.5044433843699920
  0.4303260737750421  0.8006364975256943  0.5051505107226646
  0.7045140131969703  0.6993635024743057  0.1296895762493477
  0.7954859868030297  0.9251755630523704  0.9948494892773354
  0.0696739262249579  0.5748244369476296  0.3703104237506523
 
  0.00000000E+00  0.00000000E+00  0.00000000E+00
  0.00000000E+00  0.00000000E+00  0.00000000E+00
  0.00000000E+00  0.00000000E+00  0.00000000E+00
  0.00000000E+00  0.00000000E+00  0.00000000E+00
  0.00000000E+00  0.00000000E+00  0.00000000E+00
  0.00000000E+00  0.00000000E+00  0.00000000E+00
  0.00000000E+00  0.00000000E+00  0.00000000E+00
  0.00000000E+00  0.00000000E+00  0.00000000E+00
  0.00000000E+00  0.00000000E+00  0.00000000E+00
  0.00000000E+00  0.00000000E+00  0.00000000E+00
  0.00000000E+00  0.00000000E+00  0.00000000E+00
  0.00000000E+00  0.00000000E+00  0.00000000E+00
  0.00000000E+00  0.00000000E+00  0.00000000E+00
  0.00000000E+00  0.00000000E+00  0.00000000E+00
  0.00000000E+00  0.00000000E+00  0.00000000E+00
  0.00000000E+00  0.00000000E+00  0.00000000E+00
  0.00000000E+00  0.00000000E+00  0.00000000E+00
  0.00000000E+00  0.00000000E+00  0.00000000E+00
  0.00000000E+00  0.00000000E+00  0.00000000E+00
  0.00000000E+00  0.00000000E+00  0.00000000E+00
  0.00000000E+00  0.00000000E+00  0.00000000E+00
  0.00000000E+00  0.00000000E+00  0.00000000E+00
