B Li O Cl                                200980
   1.00000000000000     
     0.0000000000000000    6.0591579633268982    6.0591579633268982
     6.0591579633268982    0.0000000000000000    6.0591579633268982
     6.0591579633268982    6.0591579633268982    0.0000000000000000
   B    Li   O    Cl
    14    10    25     2
Direct
  0.2504953745849079  0.7495046254150921  0.2504953745849079
  0.2504953745849079  0.7495046254150921  0.7495046254150921
  0.2504953745849079  0.2504953745849079  0.7495046254150921
  0.7495046254150921  0.2504953745849079  0.7495046254150921
  0.7495046254150921  0.2504953745849079  0.2504953745849079
  0.7495046254150921  0.7495046254150921  0.2504953745849079
  0.2420590312026363  0.9193136562657855  0.9193136562657855
  0.9193136562657855  0.2420590312026363  0.9193136562657855
  0.9193136562657855  0.9193136562657855  0.9193136562657855
  0.9193136562657855  0.9193136562657855  0.2420590312026363
  0.8034045416335260  0.3988651527888223  0.3988651527888223
  0.3988651527888223  0.8034045416335260  0.3988651527888223
  0.3988651527888223  0.3988651527888223  0.3988651527888223
  0.3988651527888223  0.3988651527888223  0.8034045416335260
  0.5425694777098897  0.9574305222901103  0.5425694777098897
  0.5425694777098897  0.9574305222901103  0.9574305222901103
  0.5425694777098897  0.5425694777098897  0.9574305222901103
  0.9574305222901103  0.5425694777098897  0.9574305222901103
  0.9574305222901103  0.5425694777098897  0.5425694777098897
  0.9574305222901103  0.9574305222901103  0.5425694777098897
  0.5958077877955645  0.1347307374014761  0.1347307374014761
  0.1347307374014761  0.5958077877955645  0.1347307374014761
  0.1347307374014761  0.1347307374014761  0.1347307374014761
  0.1347307374014761  0.1347307374014761  0.5958077877955645
  0.2960638067443995  0.8996427486566319  0.0636943234182610
  0.2960638067443995  0.7405991211807006  0.8996427486566319
  0.0636943234182610  0.2960638067443995  0.8996427486566319
  0.7405991211807006  0.0636943234182610  0.8996427486566319
  0.7405991211807006  0.2960638067443995  0.0636943234182610
  0.7405991211807006  0.8996427486566319  0.2960638067443995
  0.8996427486566319  0.2960638067443995  0.7405991211807006
  0.0636943234182610  0.7405991211807006  0.2960638067443995
  0.8996427486566319  0.0636943234182610  0.2960638067443995
  0.8996427486566319  0.7405991211807006  0.0636943234182610
  0.2960638067443995  0.0636943234182610  0.7405991211807006
  0.0636943234182610  0.8996427486566319  0.7405991211807006
  0.8043244375204424  0.5614332163267406  0.3945783628632569
  0.8043244375204424  0.2396639832895673  0.5614332163267406
  0.3945783628632569  0.8043244375204424  0.5614332163267406
  0.2396639832895673  0.3945783628632569  0.5614332163267406
  0.2396639832895673  0.8043244375204424  0.3945783628632569
  0.2396639832895673  0.5614332163267406  0.8043244375204424
  0.5614332163267406  0.8043244375204424  0.2396639832895673
  0.3945783628632569  0.2396639832895673  0.8043244375204424
  0.5614332163267406  0.3945783628632569  0.8043244375204424
  0.5614332163267406  0.2396639832895673  0.3945783628632569
  0.8043244375204424  0.3945783628632569  0.2396639832895673
  0.3945783628632569  0.5614332163267406  0.2396639832895673
  0.0000000000000000  0.0000000000000000  0.0000000000000000
  0.7500000000000000  0.7500000000000000  0.7500000000000000
  0.2500000000000000  0.2500000000000000  0.2500000000000000
 
  0.00000000E+00  0.00000000E+00  0.00000000E+00
  0.00000000E+00  0.00000000E+00  0.00000000E+00
  0.00000000E+00  0.00000000E+00  0.00000000E+00
  0.00000000E+00  0.00000000E+00  0.00000000E+00
  0.00000000E+00  0.00000000E+00  0.00000000E+00
  0.00000000E+00  0.00000000E+00  0.00000000E+00
  0.00000000E+00  0.00000000E+00  0.00000000E+00
  0.00000000E+00  0.00000000E+00  0.00000000E+00
  0.00000000E+00  0.00000000E+00  0.00000000E+00
  0.00000000E+00  0.00000000E+00  0.00000000E+00
  0.00000000E+00  0.00000000E+00  0.00000000E+00
  0.00000000E+00  0.00000000E+00  0.00000000E+00
  0.00000000E+00  0.00000000E+00  0.00000000E+00
  0.00000000E+00  0.00000000E+00  0.00000000E+00
  0.00000000E+00  0.00000000E+00  0.00000000E+00
  0.00000000E+00  0.00000000E+00  0.00000000E+00
  0.00000000E+00  0.00000000E+00  0.00000000E+00
  0.00000000E+00  0.00000000E+00  0.00000000E+00
  0.00000000E+00  0.00000000E+00  0.00000000E+00
  0.00000000E+00  0.00000000E+00  0.00000000E+00
  0.00000000E+00  0.00000000E+00  0.00000000E+00
  0.00000000E+00  0.00000000E+00  0.00000000E+00
  0.00000000E+00  0.00000000E+00  0.00000000E+00
  0.00000000E+00  0.00000000E+00  0.00000000E+00
  0.00000000E+00  0.00000000E+00  0.00000000E+00
  0.00000000E+00  0.00000000E+00  0.00000000E+00
  0.00000000E+00  0.00000000E+00  0.00000000E+00
  0.00000000E+00  0.00000000E+00  0.00000000E+00
  0.00000000E+00  0.00000000E+00  0.00000000E+00
  0.00000000E+00  0.00000000E+00  0.00000000E+00
  0.00000000E+00  0.00000000E+00  0.00000000E+00
  0.00000000E+00  0.00000000E+00  0.00000000E+00
  0.00000000E+00  0.00000000E+00  0.00000000E+00
  0.00000000E+00  0.00000000E+00  0.00000000E+00
  0.00000000E+00  0.00000000E+00  0.00000000E+00
  0.00000000E+00  0.00000000E+00  0.00000000E+00
  0.00000000E+00  0.00000000E+00  0.00000000E+00
  0.00000000E+00  0.00000000E+00  0.00000000E+00
  0.00000000E+00  0.00000000E+00  0.00000000E+00
  0.00000000E+00  0.00000000E+00  0.00000000E+00
  0.00000000E+00  0.00000000E+00  0.00000000E+00
  0.00000000E+00  0.00000000E+00  0.00000000E+00
  0.00000000E+00  0.00000000E+00  0.00000000E+00
  0.00000000E+00  0.00000000E+00  0.00000000E+00
  0.00000000E+00  0.00000000E+00  0.00000000E+00
  0.00000000E+00  0.00000000E+00  0.00000000E+00
  0.00000000E+00  0.00000000E+00  0.00000000E+00
  0.00000000E+00  0.00000000E+00  0.00000000E+00
  0.00000000E+00  0.00000000E+00  0.00000000E+00
  0.00000000E+00  0.00000000E+00  0.00000000E+00
  0.00000000E+00  0.00000000E+00  0.00000000E+00
