Si O                                     170489
   1.00000000000000     
     8.7525800266473919    0.0000000000000000    0.0000000000000000
     0.0000000000000000    8.7525800266473919    0.0000000000000000
     0.0000000000000000    0.0000000000000000    8.7525800266473919
   Si   O 
    12    24
Direct
  0.9163395232602198  0.3359969790590398  0.8558062698709108
  0.6640030209409602  0.8558062698709108  0.0836604767397802
  0.8558062698709108  0.9163395232602198  0.3359969790590398
  0.1441937301290892  0.0836604767397802  0.3359969790590398
  0.9163395232602198  0.6640030209409602  0.1441937301290892
  0.1441937301290892  0.9163395232602198  0.6640030209409602
  0.0836604767397802  0.6640030209409602  0.8558062698709108
  0.0836604767397802  0.3359969790590398  0.1441937301290892
  0.6640030209409602  0.1441937301290892  0.9163395232602198
  0.3359969790590398  0.1441937301290892  0.0836604767397802
  0.3359969790590398  0.8558062698709108  0.9163395232602198
  0.8558062698709108  0.0836604767397802  0.6640030209409602
  0.0000000000000000  0.5000000000000000  0.8358989171909528
  0.5000000000000000  0.8358989171909528  0.0000000000000000
  0.8358989171909528  0.0000000000000000  0.5000000000000000
  0.1641010828090472  0.0000000000000000  0.5000000000000000
  0.0000000000000000  0.5000000000000000  0.1641010828090472
  0.5000000000000000  0.1641010828090472  0.0000000000000000
  0.0000000000000000  0.2503795274156388  0.0000000000000000
  0.7496204725843612  0.0000000000000000  0.0000000000000000
  0.0000000000000000  0.0000000000000000  0.2503795274156388
  0.0000000000000000  0.7496204725843612  0.0000000000000000
  0.0000000000000000  0.0000000000000000  0.7496204725843612
  0.2503795274156388  0.0000000000000000  0.0000000000000000
  0.7381108345741438  0.3168938035873836  0.9161290117332328
  0.6831061964126164  0.9161290117332328  0.2618891654258562
  0.9161290117332328  0.7381108345741438  0.3168938035873836
  0.0838709882667672  0.2618891654258562  0.3168938035873836
  0.7381108345741438  0.6831061964126164  0.0838709882667672
  0.0838709882667672  0.7381108345741438  0.6831061964126164
  0.2618891654258562  0.6831061964126164  0.9161290117332328
  0.2618891654258562  0.3168938035873836  0.0838709882667672
  0.6831061964126164  0.0838709882667672  0.7381108345741438
  0.3168938035873836  0.0838709882667672  0.2618891654258562
  0.3168938035873836  0.9161290117332328  0.7381108345741438
  0.9161290117332328  0.2618891654258562  0.6831061964126164
 
  0.00000000E+00  0.00000000E+00  0.00000000E+00
  0.00000000E+00  0.00000000E+00  0.00000000E+00
  0.00000000E+00  0.00000000E+00  0.00000000E+00
  0.00000000E+00  0.00000000E+00  0.00000000E+00
  0.00000000E+00  0.00000000E+00  0.00000000E+00
  0.00000000E+00  0.00000000E+00  0.00000000E+00
  0.00000000E+00  0.00000000E+00  0.00000000E+00
  0.00000000E+00  0.00000000E+00  0.00000000E+00
  0.00000000E+00  0.00000000E+00  0.00000000E+00
  0.00000000E+00  0.00000000E+00  0.00000000E+00
  0.00000000E+00  0.00000000E+00  0.00000000E+00
  0.00000000E+00  0.00000000E+00  0.00000000E+00
  0.00000000E+00  0.00000000E+00  0.00000000E+00
  0.00000000E+00  0.00000000E+00  0.00000000E+00
  0.00000000E+00  0.00000000E+00  0.00000000E+00
  0.00000000E+00  0.00000000E+00  0.00000000E+00
  0.00000000E+00  0.00000000E+00  0.00000000E+00
  0.00000000E+00  0.00000000E+00  0.00000000E+00
  0.00000000E+00  0.00000000E+00  0.00000000E+00
  0.00000000E+00  0.00000000E+00  0.00000000E+00
  0.00000000E+00  0.00000000E+00  0.00000000E+00
  0.00000000E+00  0.00000000E+00  0.00000000E+00
  0.00000000E+00  0.00000000E+00  0.00000000E+00
  0.00000000E+00  0.00000000E+00  0.00000000E+00
  0.00000000E+00  0.00000000E+00  0.00000000E+00
  0.00000000E+00  0.00000000E+00  0.00000000E+00
  0.00000000E+00  0.00000000E+00  0.00000000E+00
  0.00000000E+00  0.00000000E+00  0.00000000E+00
  0.00000000E+00  0.00000000E+00  0.00000000E+00
  0.00000000E+00  0.00000000E+00  0.00000000E+00
  0.00000000E+00  0.00000000E+00  0.00000000E+00
  0.00000000E+00  0.00000000E+00  0.00000000E+00
  0.00000000E+00  0.00000000E+00  0.00000000E+00
  0.00000000E+00  0.00000000E+00  0.00000000E+00
  0.00000000E+00  0.00000000E+00  0.00000000E+00
  0.00000000E+00  0.00000000E+00  0.00000000E+00
