O V                                      10141
   1.00000000000000     
     4.4677533461134029    0.0000000000000000    0.0000000000000000
     0.0000000000000000    4.4677533461134029    0.0000000000000000
     0.0000000000000000    0.0000000000000000    2.9935781227866674
   O    V 
     4     2
Direct
  0.2997639644276049  0.2997639644276049  0.0000000000000000
  0.7997639644276049  0.2002360355723951  0.5000000000000000
  0.2002360355723951  0.7997639644276049  0.5000000000000000
  0.7002360355723951  0.7002360355723951  0.0000000000000000
  0.0000000000000000  0.0000000000000000  0.0000000000000000
  0.5000000000000000  0.5000000000000000  0.5000000000000000
 
  0.00000000E+00  0.00000000E+00  0.00000000E+00
  0.00000000E+00  0.00000000E+00  0.00000000E+00
  0.00000000E+00  0.00000000E+00  0.00000000E+00
  0.00000000E+00  0.00000000E+00  0.00000000E+00
  0.00000000E+00  0.00000000E+00  0.00000000E+00
  0.00000000E+00  0.00000000E+00  0.00000000E+00
