Sb S O H                                 100340
   1.00000000000000     
     5.7526954424266998    0.0000000000000000    0.0000000000000000
     0.0000000000000000   11.1961815126047473    0.0000000000000000
     0.0000000000000000    0.0000000000000000   14.9180868701432612
   Sb   S    O    H 
    16     4    40     8
Direct
  0.9747815214596542  0.3643071505152236  0.2479707988800968
  0.0252184785403458  0.6356928494847764  0.7479707988800968
  0.5252184785403458  0.3643071505152236  0.7479707988800968
  0.4747815214596542  0.6356928494847764  0.2479707988800968
  0.8846492494074170  0.0888277422547290  0.0902767615368134
  0.1153507505925830  0.9111722577452781  0.5902767615368134
  0.6153507505925830  0.0888277422547290  0.5902767615368134
  0.3846492494074170  0.9111722577452781  0.0902767615368134
  0.6520762015081303  0.4066131716195045  0.4335875704010945
  0.3479237984918697  0.5933868283804884  0.9335875704010945
  0.8479237984918697  0.4066131716195045  0.9335875704010945
  0.1520762015081303  0.5933868283804884  0.4335875704010945
  0.5421096741767286  0.1398622307063988  0.2690562403451224
  0.4578903258232714  0.8601377692936012  0.7690562403451224
  0.9578903258232714  0.1398622307063988  0.7690562403451224
  0.0421096741767286  0.8601377692936012  0.2690562403451224
  0.1750296332905776  0.2619406647590878  0.5086212289028182
  0.8249703667094224  0.7380593352409122  0.0086212289028182
  0.3249703667094224  0.2619406647590878  0.0086212289028182
  0.6750296332905776  0.7380593352409122  0.5086212289028182
  0.3433004766436838  0.2506529765691212  0.4329439622936917
  0.6566995233563162  0.7493470234308788  0.9329439622936917
  0.1566995233563162  0.2506529765691212  0.9329439622936917
  0.8433004766436838  0.7493470234308788  0.4329439622936917
  0.1390808096154856  0.3902621260565695  0.5296638492731276
  0.8609191903845144  0.6097378739434305  0.0296638492731276
  0.3609191903845144  0.3902621260565695  0.0296638492731276
  0.6390808096154856  0.6097378739434305  0.5296638492731276
  0.9530953107650149  0.2030010794443911  0.4847503753279128
  0.0469046892349851  0.7969989205556089  0.9847503753279128
  0.5469046892349851  0.2030010794443911  0.9847503753279128
  0.4530953107650149  0.7969989205556089  0.4847503753279128
  0.2752341458660084  0.2027098285280715  0.5907175035508843
  0.7247658541339916  0.7972901714719214  0.0907175035508843
  0.2247658541339916  0.2027098285280715  0.0907175035508843
  0.7752341458660084  0.7972901714719214  0.5907175035508843
  0.7613585731225356  0.4675649905649450  0.1776884747479812
  0.2386414268774644  0.5324350094350550  0.6776884747479812
  0.7386414268774644  0.4675649905649450  0.6776884747479812
  0.2613585731225356  0.5324350094350550  0.1776884747479812
  0.8033721413697776  0.2087079936838450  0.1829774916173292
  0.1966278586302224  0.7912920063161550  0.6829774916173221
  0.6966278586302224  0.2087079936838450  0.6829774916173221
  0.3033721413697776  0.7912920063161550  0.1829774916173292
  0.9219553410446863  0.4908144775174605  0.3652877570347428
  0.0780446589553137  0.5091855224825395  0.8652877570347428
  0.5780446589553137  0.4908144775174605  0.8652877570347428
  0.4219553410446863  0.5091855224825395  0.3652877570347428
  0.6102506550881301  0.0093418473015134  0.1643370160321282
  0.3897493449118699  0.9906581526984866  0.6643370160321282
  0.8897493449118699  0.0093418473015134  0.6643370160321282
  0.1102506550881230  0.9906581526984866  0.1643370160321282
  0.7782931973324594  0.0488047309928632  0.3389348900730837
  0.2217068026675406  0.9511952690071368  0.8389348900730837
  0.7217068026675406  0.0488047309928632  0.8389348900730837
  0.2782931973324594  0.9511952690071368  0.3389348900730837
  0.7014078026285588  0.3052460563184880  0.3238586692407779
  0.2985921973714412  0.6947539436815120  0.8238586692407779
  0.7985921973714412  0.3052460563184880  0.8238586692407779
  0.2014078026285588  0.6947539436815120  0.3238586692407779
  0.8468887489261618  0.5204718213742652  0.1355448500080243
  0.1531112510738382  0.4795281786257348  0.6355448500080243
  0.6531112510738382  0.5204718213742652  0.6355448500080243
  0.3468887489261618  0.4795281786257348  0.1355448500080243
  0.8589192588364796  0.1013267602255041  0.3823825607343565
  0.1410807411635204  0.8986732397744959  0.8823825607343565
  0.6410807411635204  0.1013267602255041  0.8823825607343565
  0.3589192588364796  0.8986732397744959  0.3823825607343565
 
  0.00000000E+00  0.00000000E+00  0.00000000E+00
  0.00000000E+00  0.00000000E+00  0.00000000E+00
  0.00000000E+00  0.00000000E+00  0.00000000E+00
  0.00000000E+00  0.00000000E+00  0.00000000E+00
  0.00000000E+00  0.00000000E+00  0.00000000E+00
  0.00000000E+00  0.00000000E+00  0.00000000E+00
  0.00000000E+00  0.00000000E+00  0.00000000E+00
  0.00000000E+00  0.00000000E+00  0.00000000E+00
  0.00000000E+00  0.00000000E+00  0.00000000E+00
  0.00000000E+00  0.00000000E+00  0.00000000E+00
  0.00000000E+00  0.00000000E+00  0.00000000E+00
  0.00000000E+00  0.00000000E+00  0.00000000E+00
  0.00000000E+00  0.00000000E+00  0.00000000E+00
  0.00000000E+00  0.00000000E+00  0.00000000E+00
  0.00000000E+00  0.00000000E+00  0.00000000E+00
  0.00000000E+00  0.00000000E+00  0.00000000E+00
  0.00000000E+00  0.00000000E+00  0.00000000E+00
  0.00000000E+00  0.00000000E+00  0.00000000E+00
  0.00000000E+00  0.00000000E+00  0.00000000E+00
  0.00000000E+00  0.00000000E+00  0.00000000E+00
  0.00000000E+00  0.00000000E+00  0.00000000E+00
  0.00000000E+00  0.00000000E+00  0.00000000E+00
  0.00000000E+00  0.00000000E+00  0.00000000E+00
  0.00000000E+00  0.00000000E+00  0.00000000E+00
  0.00000000E+00  0.00000000E+00  0.00000000E+00
  0.00000000E+00  0.00000000E+00  0.00000000E+00
  0.00000000E+00  0.00000000E+00  0.00000000E+00
  0.00000000E+00  0.00000000E+00  0.00000000E+00
  0.00000000E+00  0.00000000E+00  0.00000000E+00
  0.00000000E+00  0.00000000E+00  0.00000000E+00
  0.00000000E+00  0.00000000E+00  0.00000000E+00
  0.00000000E+00  0.00000000E+00  0.00000000E+00
  0.00000000E+00  0.00000000E+00  0.00000000E+00
  0.00000000E+00  0.00000000E+00  0.00000000E+00
  0.00000000E+00  0.00000000E+00  0.00000000E+00
  0.00000000E+00  0.00000000E+00  0.00000000E+00
  0.00000000E+00  0.00000000E+00  0.00000000E+00
  0.00000000E+00  0.00000000E+00  0.00000000E+00
  0.00000000E+00  0.00000000E+00  0.00000000E+00
  0.00000000E+00  0.00000000E+00  0.00000000E+00
  0.00000000E+00  0.00000000E+00  0.00000000E+00
  0.00000000E+00  0.00000000E+00  0.00000000E+00
  0.00000000E+00  0.00000000E+00  0.00000000E+00
  0.00000000E+00  0.00000000E+00  0.00000000E+00
  0.00000000E+00  0.00000000E+00  0.00000000E+00
  0.00000000E+00  0.00000000E+00  0.00000000E+00
  0.00000000E+00  0.00000000E+00  0.00000000E+00
  0.00000000E+00  0.00000000E+00  0.00000000E+00
  0.00000000E+00  0.00000000E+00  0.00000000E+00
  0.00000000E+00  0.00000000E+00  0.00000000E+00
  0.00000000E+00  0.00000000E+00  0.00000000E+00
  0.00000000E+00  0.00000000E+00  0.00000000E+00
  0.00000000E+00  0.00000000E+00  0.00000000E+00
  0.00000000E+00  0.00000000E+00  0.00000000E+00
  0.00000000E+00  0.00000000E+00  0.00000000E+00
  0.00000000E+00  0.00000000E+00  0.00000000E+00
  0.00000000E+00  0.00000000E+00  0.00000000E+00
  0.00000000E+00  0.00000000E+00  0.00000000E+00
  0.00000000E+00  0.00000000E+00  0.00000000E+00
  0.00000000E+00  0.00000000E+00  0.00000000E+00
  0.00000000E+00  0.00000000E+00  0.00000000E+00
  0.00000000E+00  0.00000000E+00  0.00000000E+00
  0.00000000E+00  0.00000000E+00  0.00000000E+00
  0.00000000E+00  0.00000000E+00  0.00000000E+00
  0.00000000E+00  0.00000000E+00  0.00000000E+00
  0.00000000E+00  0.00000000E+00  0.00000000E+00
  0.00000000E+00  0.00000000E+00  0.00000000E+00
  0.00000000E+00  0.00000000E+00  0.00000000E+00
