Na H O N                                 10182
   1.00000000000000     
     6.2753448087469961    0.0000000000000000    0.0000000000000000
     0.0000000000000000    9.5924985331199846    0.0000000000000000
     0.0000000000000000    0.0000000000000000    6.6180029357919734
   Na   H    O    N 
     8     8    16     8
Direct
  0.0000000000000000  0.0000000000000000  0.0000000000000000
  0.0000000000000000  0.0000000000000000  0.5000000000000000
  0.0000000000000000  0.5000000000000000  0.0000000000000000
  0.0000000000000000  0.5000000000000000  0.5000000000000000
  0.6727187075689827  0.2500000000000000  0.0000000000000000
  0.3272812924310173  0.7500000000000000  0.5000000000000000
  0.3272812924310173  0.7500000000000000  0.0000000000000000
  0.6727187075689827  0.2500000000000000  0.5000000000000000
  0.1778069925497050  0.2783935315403951  0.8927879311121103
  0.8221930074502879  0.7216064684596049  0.3927879311121103
  0.8221930074502879  0.7783935315403951  0.8927879311121103
  0.8221930074502879  0.7216064684596049  0.1072120688878897
  0.1778069925497050  0.2216064684596049  0.3927879311121103
  0.1778069925497050  0.2783935315403951  0.6072120688878897
  0.1778069925497050  0.2216064684596049  0.1072120688878897
  0.8221930074502879  0.7783935315403951  0.6072120688878897
  0.2573396213519814  0.5590998157527736  0.7500000000000000
  0.7426603786480186  0.4409001842472264  0.2500000000000000
  0.7426603786480186  0.0590998157527736  0.7500000000000000
  0.2573396213519814  0.9409001842472264  0.2500000000000000
  0.3864667076390589  0.3378137856997299  0.7500000000000000
  0.6135332923609411  0.6621862143002701  0.2500000000000000
  0.6135332923609411  0.8378137856997299  0.7500000000000000
  0.3864667076390589  0.1621862143002701  0.2500000000000000
  0.7618790844637928  0.4273815105215135  0.7500000000000000
  0.2381209155362072  0.5726184894784865  0.2500000000000000
  0.2381209155362072  0.9273815105215135  0.7500000000000000
  0.7618790844637928  0.0726184894784865  0.2500000000000000
  0.0741977921172534  0.2500000000000000  0.0000000000000000
  0.9258022078827466  0.7500000000000000  0.5000000000000000
  0.9258022078827466  0.7500000000000000  0.0000000000000000
  0.0741977921172534  0.2500000000000000  0.5000000000000000
  0.4206596725574556  0.4735953485416786  0.7500000000000000
  0.5793403274425444  0.5264046514583214  0.2500000000000000
  0.5793403274425444  0.9735953485416786  0.7500000000000000
  0.4206596725574556  0.0264046514583214  0.2500000000000000
  0.6102544020627931  0.5249991077459839  0.7500000000000000
  0.3897455979371998  0.4750008922540161  0.2500000000000000
  0.3897455979371998  0.0249991077459839  0.7500000000000000
  0.6102544020627931  0.9750008922540161  0.2500000000000000
 
  0.00000000E+00  0.00000000E+00  0.00000000E+00
  0.00000000E+00  0.00000000E+00  0.00000000E+00
  0.00000000E+00  0.00000000E+00  0.00000000E+00
  0.00000000E+00  0.00000000E+00  0.00000000E+00
  0.00000000E+00  0.00000000E+00  0.00000000E+00
  0.00000000E+00  0.00000000E+00  0.00000000E+00
  0.00000000E+00  0.00000000E+00  0.00000000E+00
  0.00000000E+00  0.00000000E+00  0.00000000E+00
  0.00000000E+00  0.00000000E+00  0.00000000E+00
  0.00000000E+00  0.00000000E+00  0.00000000E+00
  0.00000000E+00  0.00000000E+00  0.00000000E+00
  0.00000000E+00  0.00000000E+00  0.00000000E+00
  0.00000000E+00  0.00000000E+00  0.00000000E+00
  0.00000000E+00  0.00000000E+00  0.00000000E+00
  0.00000000E+00  0.00000000E+00  0.00000000E+00
  0.00000000E+00  0.00000000E+00  0.00000000E+00
  0.00000000E+00  0.00000000E+00  0.00000000E+00
  0.00000000E+00  0.00000000E+00  0.00000000E+00
  0.00000000E+00  0.00000000E+00  0.00000000E+00
  0.00000000E+00  0.00000000E+00  0.00000000E+00
  0.00000000E+00  0.00000000E+00  0.00000000E+00
  0.00000000E+00  0.00000000E+00  0.00000000E+00
  0.00000000E+00  0.00000000E+00  0.00000000E+00
  0.00000000E+00  0.00000000E+00  0.00000000E+00
  0.00000000E+00  0.00000000E+00  0.00000000E+00
  0.00000000E+00  0.00000000E+00  0.00000000E+00
  0.00000000E+00  0.00000000E+00  0.00000000E+00
  0.00000000E+00  0.00000000E+00  0.00000000E+00
  0.00000000E+00  0.00000000E+00  0.00000000E+00
  0.00000000E+00  0.00000000E+00  0.00000000E+00
  0.00000000E+00  0.00000000E+00  0.00000000E+00
  0.00000000E+00  0.00000000E+00  0.00000000E+00
  0.00000000E+00  0.00000000E+00  0.00000000E+00
  0.00000000E+00  0.00000000E+00  0.00000000E+00
  0.00000000E+00  0.00000000E+00  0.00000000E+00
  0.00000000E+00  0.00000000E+00  0.00000000E+00
  0.00000000E+00  0.00000000E+00  0.00000000E+00
  0.00000000E+00  0.00000000E+00  0.00000000E+00
  0.00000000E+00  0.00000000E+00  0.00000000E+00
  0.00000000E+00  0.00000000E+00  0.00000000E+00
