Ge Ba                                    100129
   1.00000000000000     
    -2.3651850073984382    2.3651850073984382    7.3450619059591693
     2.3651850073984382   -2.3651850073984382    7.3450619059591693
     2.3651850073984382    2.3651850073984382   -7.3450619059591693
   Ge   Ba
     4     2
Direct
  0.1663242401887501  0.6663242401887501  0.5000000000000000
  0.5836757598112499  0.5836757598112499  0.0000000000000000
  0.4163242401887501  0.4163242401887501  0.0000000000000000
  0.3336757598112499  0.8336757598112499  0.5000000000000000
  0.7500000000000000  0.2500000000000000  0.5000000000000000
  0.0000000000000000  0.0000000000000000  0.0000000000000000
 
  0.00000000E+00  0.00000000E+00  0.00000000E+00
  0.00000000E+00  0.00000000E+00  0.00000000E+00
  0.00000000E+00  0.00000000E+00  0.00000000E+00
  0.00000000E+00  0.00000000E+00  0.00000000E+00
  0.00000000E+00  0.00000000E+00  0.00000000E+00
  0.00000000E+00  0.00000000E+00  0.00000000E+00
