Ge Al La                                 105149
   1.00000000000000     
    -2.1567263151972260    2.1567263151972260    7.3735973537794548
     2.1567263151972260   -2.1567263151972260    7.3735973537794548
     2.1567263151972260    2.1567263151972260   -7.3735973537794548
   Ge   Al   La
     2     2     2
Direct
  0.4161403825249437  0.9161403825249437  0.5000000000000000
  0.6661403825249437  0.6661403825249437  0.0000000000000000
  0.5828359461031809  0.0828359461031809  0.5000000000000000
  0.8328359461031809  0.8328359461031809  0.0000000000000000
  0.9993236713718545  0.4993236713718545  0.5000000000000000
  0.2493236713718545  0.2493236713718545  0.0000000000000000
 
  0.00000000E+00  0.00000000E+00  0.00000000E+00
  0.00000000E+00  0.00000000E+00  0.00000000E+00
  0.00000000E+00  0.00000000E+00  0.00000000E+00
  0.00000000E+00  0.00000000E+00  0.00000000E+00
  0.00000000E+00  0.00000000E+00  0.00000000E+00
  0.00000000E+00  0.00000000E+00  0.00000000E+00
