H S                                      168207
   1.00000000000000     
    -3.9098793450947182    3.9579557057156274    4.7281841201601944
     3.9098793450947182   -3.9579557057156274    4.7281841201601944
     3.9098793450947182    3.9579557057156274   -4.7281841201601944
   H    S 
    16     8
Direct
  0.5839187019844942  0.7651407668986749  0.9871848187461154
  0.2220440518474476  0.7348592331013251  0.3187779350858193
  0.7220440518474476  0.4032661167616283  0.4871848187461154
  0.0839187019844942  0.0967338832383717  0.8187779350858193
  0.7779559481525524  0.2651407668986749  0.6812220649141807
  0.2779559481525524  0.5967338832383717  0.5128151812538846
  0.4160812980155058  0.2348592331013251  0.0128151812538846
  0.9160812980155058  0.9032661167616283  0.1812220649141807
  0.7855397971764475  0.0839195374921289  0.0052100555494619
  0.9212905180573401  0.4160804625078711  0.2016202596843115
  0.4212905180573401  0.2196702583730215  0.5052100555494619
  0.2855397971764475  0.2803297416269785  0.7016202596843115
  0.0787094819426599  0.5839195374921289  0.7983797403156885
  0.5787094819426599  0.7803297416269785  0.4947899444505381
  0.2144602028235525  0.9160804625078711  0.9947899444505381
  0.7144602028235525  0.7196702583730215  0.2983797403156885
  0.2643203653931963  0.7500000000000000  0.0143203653931963
  0.7643203653931963  0.7500000000000000  0.5143203653931963
  0.7356796346068037  0.2500000000000000  0.9856796346068037
  0.2356796346068037  0.2500000000000000  0.4856796346068037
  0.2500000000000000  0.2851776925843836  0.0351776925843836
  0.7500000000000000  0.2148223074156164  0.4648223074156164
  0.2500000000000000  0.7851776925843836  0.5351776925843836
  0.7500000000000000  0.7148223074156164  0.9648223074156164
 
  0.00000000E+00  0.00000000E+00  0.00000000E+00
  0.00000000E+00  0.00000000E+00  0.00000000E+00
  0.00000000E+00  0.00000000E+00  0.00000000E+00
  0.00000000E+00  0.00000000E+00  0.00000000E+00
  0.00000000E+00  0.00000000E+00  0.00000000E+00
  0.00000000E+00  0.00000000E+00  0.00000000E+00
  0.00000000E+00  0.00000000E+00  0.00000000E+00
  0.00000000E+00  0.00000000E+00  0.00000000E+00
  0.00000000E+00  0.00000000E+00  0.00000000E+00
  0.00000000E+00  0.00000000E+00  0.00000000E+00
  0.00000000E+00  0.00000000E+00  0.00000000E+00
  0.00000000E+00  0.00000000E+00  0.00000000E+00
  0.00000000E+00  0.00000000E+00  0.00000000E+00
  0.00000000E+00  0.00000000E+00  0.00000000E+00
  0.00000000E+00  0.00000000E+00  0.00000000E+00
  0.00000000E+00  0.00000000E+00  0.00000000E+00
  0.00000000E+00  0.00000000E+00  0.00000000E+00
  0.00000000E+00  0.00000000E+00  0.00000000E+00
  0.00000000E+00  0.00000000E+00  0.00000000E+00
  0.00000000E+00  0.00000000E+00  0.00000000E+00
  0.00000000E+00  0.00000000E+00  0.00000000E+00
  0.00000000E+00  0.00000000E+00  0.00000000E+00
  0.00000000E+00  0.00000000E+00  0.00000000E+00
  0.00000000E+00  0.00000000E+00  0.00000000E+00
