H Li N                                   169858
   1.00000000000000     
     4.8400755919817335    0.0000000293126751    0.0000000000000000
    -0.0000000293126751    4.8400755919817335    0.0000000000000000
     0.0000000000000000    0.0000000000000000    5.2776384835920789
   H    Li   N 
     4     8     4
Direct
  0.5343792362949031  0.2243373008557086  0.7579493037094593
  0.2243373008557086  0.4656207637050969  0.2579493037094593
  0.7756626991442914  0.5343792362949031  0.2579493037094593
  0.4656207637050969  0.7756626991442914  0.7579493037094593
  0.0000000000000000  0.0000000000000000  0.0026945498940734
  0.0000000000000000  0.0000000000000000  0.5026945498940734
  0.5000000000000000  0.5000000000000000  0.0063540178740951
  0.5000000000000000  0.5000000000000000  0.5063540178740951
  0.0000000000000000  0.5000000000000000  0.9706853935597834
  0.5000000000000000  0.0000000000000000  0.4706853935597834
  0.0000000000000000  0.5000000000000000  0.5467617350024199
  0.5000000000000000  0.0000000000000000  0.0467617350024199
  0.2526707293258923  0.2521640357630872  0.2569028481253355
  0.2521640357630872  0.7473292706741077  0.7569028481253355
  0.7478359642369128  0.2526707293258923  0.7569028481253355
  0.7473292706741077  0.7478359642369128  0.2569028481253355
 
  0.00000000E+00  0.00000000E+00  0.00000000E+00
  0.00000000E+00  0.00000000E+00  0.00000000E+00
  0.00000000E+00  0.00000000E+00  0.00000000E+00
  0.00000000E+00  0.00000000E+00  0.00000000E+00
  0.00000000E+00  0.00000000E+00  0.00000000E+00
  0.00000000E+00  0.00000000E+00  0.00000000E+00
  0.00000000E+00  0.00000000E+00  0.00000000E+00
  0.00000000E+00  0.00000000E+00  0.00000000E+00
  0.00000000E+00  0.00000000E+00  0.00000000E+00
  0.00000000E+00  0.00000000E+00  0.00000000E+00
  0.00000000E+00  0.00000000E+00  0.00000000E+00
  0.00000000E+00  0.00000000E+00  0.00000000E+00
  0.00000000E+00  0.00000000E+00  0.00000000E+00
  0.00000000E+00  0.00000000E+00  0.00000000E+00
  0.00000000E+00  0.00000000E+00  0.00000000E+00
  0.00000000E+00  0.00000000E+00  0.00000000E+00
