Na Fe F                                  15928
   1.00000000000000     
     7.6185722248371857    0.0000000000000000    0.0000000000000000
     0.0000000000000000    7.6185722248371857    0.0000000000000000
     0.0000000000000000    0.0000000000000000    9.8472880381331187
   Na   Fe   F 
    10     6    28
Direct
  0.2667474217807779  0.7301841919114196  0.2607250112546069
  0.2332525782192150  0.2301841919114196  0.2392749887453931
  0.2698158080885804  0.7332525782192221  0.7392749887453931
  0.2301841919114196  0.2332525782192150  0.7607250112546069
  0.7667474217807779  0.7698158080885804  0.2392749887453931
  0.7332525782192221  0.2698158080885804  0.2607250112546069
  0.7698158080885804  0.7667474217807779  0.7607250112546069
  0.7301841919114196  0.2667474217807779  0.7392749887453931
  0.0000000000000000  0.0000000000000000  0.5000000000000000
  0.5000000000000000  0.5000000000000000  0.0000000000000000
  0.0000000000000000  0.5000000000000000  0.4997882044447479
  0.5000000000000000  0.0000000000000000  0.0002117955552521
  0.5000000000000000  0.0000000000000000  0.5002117955552521
  0.0000000000000000  0.5000000000000000  0.9997882044447479
  0.0000000000000000  0.0000000000000000  0.0000000000000000
  0.5000000000000000  0.5000000000000000  0.5000000000000000
  0.9992099534815821  0.3102310932532575  0.3687479650896535
  0.5007900465184179  0.8102310932532575  0.1312520349103465
  0.6897689067467425  0.0007900465184179  0.6312520349103465
  0.8102310932532575  0.5007900465184179  0.8687479650896535
  0.4992099534815821  0.1897689067467425  0.1312520349103465
  0.0007900465184179  0.6897689067467425  0.3687479650896535
  0.1897689067467425  0.4992099534815821  0.8687479650896535
  0.3102310932532575  0.9992099534815821  0.6312520349103465
  0.3124268396101684  0.9966570277657354  0.3679446670518658
  0.1875731603898316  0.4966570277657354  0.1320553329481342
  0.0033429722342646  0.6875731603898316  0.6320553329481342
  0.4966570277657354  0.1875731603898316  0.8679446670518658
  0.8124268396101684  0.5033429722342646  0.1320553329481342
  0.6875731603898316  0.0033429722342646  0.3679446670518658
  0.5033429722342646  0.8124268396101684  0.8679446670518658
  0.9966570277657354  0.3124268396101684  0.6320553329481342
  0.2507641127619991  0.5030677150576679  0.4963475901271082
  0.2492358872380009  0.0030677150576679  0.0036524098728918
  0.4969322849423321  0.7492358872380009  0.5036524098728918
  0.0030677150576679  0.2492358872380009  0.9963475901271082
  0.7507641127619991  0.9969322849423321  0.0036524098728918
  0.7492358872380009  0.4969322849423321  0.4963475901271082
  0.9969322849423321  0.7507641127619991  0.9963475901271082
  0.5030677150576679  0.2507641127619991  0.5036524098728918
  0.0000000000000000  0.0000000000000000  0.1920595406735615
  0.5000000000000000  0.5000000000000000  0.3079404593264385
  0.0000000000000000  0.0000000000000000  0.8079404593264385
  0.5000000000000000  0.5000000000000000  0.6920595406735615
 
  0.00000000E+00  0.00000000E+00  0.00000000E+00
  0.00000000E+00  0.00000000E+00  0.00000000E+00
  0.00000000E+00  0.00000000E+00  0.00000000E+00
  0.00000000E+00  0.00000000E+00  0.00000000E+00
  0.00000000E+00  0.00000000E+00  0.00000000E+00
  0.00000000E+00  0.00000000E+00  0.00000000E+00
  0.00000000E+00  0.00000000E+00  0.00000000E+00
  0.00000000E+00  0.00000000E+00  0.00000000E+00
  0.00000000E+00  0.00000000E+00  0.00000000E+00
  0.00000000E+00  0.00000000E+00  0.00000000E+00
  0.00000000E+00  0.00000000E+00  0.00000000E+00
  0.00000000E+00  0.00000000E+00  0.00000000E+00
  0.00000000E+00  0.00000000E+00  0.00000000E+00
  0.00000000E+00  0.00000000E+00  0.00000000E+00
  0.00000000E+00  0.00000000E+00  0.00000000E+00
  0.00000000E+00  0.00000000E+00  0.00000000E+00
  0.00000000E+00  0.00000000E+00  0.00000000E+00
  0.00000000E+00  0.00000000E+00  0.00000000E+00
  0.00000000E+00  0.00000000E+00  0.00000000E+00
  0.00000000E+00  0.00000000E+00  0.00000000E+00
  0.00000000E+00  0.00000000E+00  0.00000000E+00
  0.00000000E+00  0.00000000E+00  0.00000000E+00
  0.00000000E+00  0.00000000E+00  0.00000000E+00
  0.00000000E+00  0.00000000E+00  0.00000000E+00
  0.00000000E+00  0.00000000E+00  0.00000000E+00
  0.00000000E+00  0.00000000E+00  0.00000000E+00
  0.00000000E+00  0.00000000E+00  0.00000000E+00
  0.00000000E+00  0.00000000E+00  0.00000000E+00
  0.00000000E+00  0.00000000E+00  0.00000000E+00
  0.00000000E+00  0.00000000E+00  0.00000000E+00
  0.00000000E+00  0.00000000E+00  0.00000000E+00
  0.00000000E+00  0.00000000E+00  0.00000000E+00
  0.00000000E+00  0.00000000E+00  0.00000000E+00
  0.00000000E+00  0.00000000E+00  0.00000000E+00
  0.00000000E+00  0.00000000E+00  0.00000000E+00
  0.00000000E+00  0.00000000E+00  0.00000000E+00
  0.00000000E+00  0.00000000E+00  0.00000000E+00
  0.00000000E+00  0.00000000E+00  0.00000000E+00
  0.00000000E+00  0.00000000E+00  0.00000000E+00
  0.00000000E+00  0.00000000E+00  0.00000000E+00
  0.00000000E+00  0.00000000E+00  0.00000000E+00
  0.00000000E+00  0.00000000E+00  0.00000000E+00
  0.00000000E+00  0.00000000E+00  0.00000000E+00
  0.00000000E+00  0.00000000E+00  0.00000000E+00
