P O Li                                   10257
   1.00000000000000     
     6.1070223874919387    0.0000000000000000    0.0000000000000000
     0.0000000000000000    5.2341802882091946    0.0000000000000000
     0.0000000000000000    0.0000000000000000    4.8377328258459391
   P    O    Li
     2     8     6
Direct
  0.0000000000000000  0.1741999926391102  0.0008840996793253
  0.5000000000000000  0.8258000073608898  0.5008840996793253
  0.2086466830728284  0.3134378807211746  0.1075140991297374
  0.7913533169271716  0.3134378807211746  0.1075140991297374
  0.2913533169271716  0.6865621192788254  0.6075140991297374
  0.7086466830728284  0.6865621192788254  0.6075140991297374
  0.0000000000000000  0.8928027782759997  0.1032501551110059
  0.5000000000000000  0.1071972217240074  0.6032501551110059
  0.5000000000000000  0.8200480029232438  0.1802399749196368
  0.0000000000000000  0.1799519970767562  0.6802399749196368
  0.2467945263172098  0.6722045744713938  0.0095716519710294
  0.7532054736827902  0.6722045744713938  0.0095716519710294
  0.2532054736827902  0.3277954255286062  0.5095716519710294
  0.7467945263172098  0.3277954255286062  0.5095716519710294
  0.5000000000000000  0.1590309498859810  0.0103542680885838
  0.0000000000000000  0.8409690501140190  0.5103542680885838
 
  0.00000000E+00  0.00000000E+00  0.00000000E+00
  0.00000000E+00  0.00000000E+00  0.00000000E+00
  0.00000000E+00  0.00000000E+00  0.00000000E+00
  0.00000000E+00  0.00000000E+00  0.00000000E+00
  0.00000000E+00  0.00000000E+00  0.00000000E+00
  0.00000000E+00  0.00000000E+00  0.00000000E+00
  0.00000000E+00  0.00000000E+00  0.00000000E+00
  0.00000000E+00  0.00000000E+00  0.00000000E+00
  0.00000000E+00  0.00000000E+00  0.00000000E+00
  0.00000000E+00  0.00000000E+00  0.00000000E+00
  0.00000000E+00  0.00000000E+00  0.00000000E+00
  0.00000000E+00  0.00000000E+00  0.00000000E+00
  0.00000000E+00  0.00000000E+00  0.00000000E+00
  0.00000000E+00  0.00000000E+00  0.00000000E+00
  0.00000000E+00  0.00000000E+00  0.00000000E+00
  0.00000000E+00  0.00000000E+00  0.00000000E+00
