Cu Pd                                    103087
   1.00000000000000     
     5.7279777824713296   -0.0000000001890173    0.0000000000000000
     0.0000000001890173    5.7279777824713296    0.0000000000000000
     0.0000000000000000    0.0000000000000000    7.0663679850575125
   Cu   Pd
    16     4
Direct
  0.0000000000000000  0.0000000000000000  0.0000000000000000
  0.0000000000000000  0.0000000000000000  0.5000000000000000
  0.5000000000000000  0.5000000000000000  0.2500000000000000
  0.5000000000000000  0.5000000000000000  0.7500000000000000
  0.1926887197980847  0.6041956220489197  0.0000000000000000
  0.6041956220489197  0.8073112802019153  0.5000000000000000
  0.3958043779510803  0.1926887197980847  0.5000000000000000
  0.8073112802019153  0.3958043779510803  0.0000000000000000
  0.0967961927180951  0.2978925035217372  0.2495052662258814
  0.2978925035217372  0.9032038072819049  0.2504947337741186
  0.7021074964782557  0.0967961927180951  0.7495052662258814
  0.9032038072819049  0.7021074964782557  0.7504947337741186
  0.2978925035217372  0.9032038072819049  0.7495052662258814
  0.7021074964782557  0.0967961927180951  0.2504947337741186
  0.9032038072819049  0.7021074964782557  0.2495052662258814
  0.0967961927180951  0.2978925035217372  0.7504947337741186
  0.3971978161330370  0.2080835526526883  0.0000000000000000
  0.2080835526526883  0.6028021838669630  0.5000000000000000
  0.7919164473473117  0.3971978161330370  0.5000000000000000
  0.6028021838669630  0.7919164473473117  0.0000000000000000
 
  0.00000000E+00  0.00000000E+00  0.00000000E+00
  0.00000000E+00  0.00000000E+00  0.00000000E+00
  0.00000000E+00  0.00000000E+00  0.00000000E+00
  0.00000000E+00  0.00000000E+00  0.00000000E+00
  0.00000000E+00  0.00000000E+00  0.00000000E+00
  0.00000000E+00  0.00000000E+00  0.00000000E+00
  0.00000000E+00  0.00000000E+00  0.00000000E+00
  0.00000000E+00  0.00000000E+00  0.00000000E+00
  0.00000000E+00  0.00000000E+00  0.00000000E+00
  0.00000000E+00  0.00000000E+00  0.00000000E+00
  0.00000000E+00  0.00000000E+00  0.00000000E+00
  0.00000000E+00  0.00000000E+00  0.00000000E+00
  0.00000000E+00  0.00000000E+00  0.00000000E+00
  0.00000000E+00  0.00000000E+00  0.00000000E+00
  0.00000000E+00  0.00000000E+00  0.00000000E+00
  0.00000000E+00  0.00000000E+00  0.00000000E+00
  0.00000000E+00  0.00000000E+00  0.00000000E+00
  0.00000000E+00  0.00000000E+00  0.00000000E+00
  0.00000000E+00  0.00000000E+00  0.00000000E+00
  0.00000000E+00  0.00000000E+00  0.00000000E+00
