Si O                                     100199
   1.00000000000000     
     4.9165066280731695    0.0000000000000000    0.0000000000000000
     0.0000000000000000    8.3005413487659929    0.0000000000000000
     0.0000000000000000    0.0000000000000000   26.5123046910202227
   Si   O 
    24    48
Direct
  0.6676244771974353  0.6668409771300574  0.1380667394494495
  0.8323755228025647  0.3331590228699426  0.6380667394494495
  0.3323755228025647  0.1668409771300574  0.3619332605505505
  0.1676244771974353  0.8331590228699497  0.8619332605505505
  0.5116591374894028  0.2917065264245551  0.1392468154022737
  0.9883408625105972  0.7082934735754449  0.6392468154022666
  0.4883408625105972  0.7917065264245551  0.3607531845977263
  0.0116591374894028  0.2082934735754449  0.8607531845977334
  0.6665162106465345  0.8111162678816370  0.0280289376911114
  0.8334837893534655  0.1888837321183630  0.5280289376911185
  0.3334837893534583  0.3111162678816370  0.4719710623088815
  0.1665162106465345  0.6888837321183630  0.9719710623088815
  0.4957581621965446  0.1838054048993740  0.0278210530796841
  0.0042418378034554  0.8161945951006260  0.5278210530796770
  0.5042418378034554  0.6838054048993740  0.4721789469203159
  0.9957581621965446  0.3161945951006260  0.9721789469203230
  0.1669468129484457  0.7869640838457599  0.1949549973118749
  0.3330531870515614  0.2130359161542401  0.6949549973118749
  0.8330531870515543  0.2869640838457599  0.3050450026881251
  0.6669468129484457  0.7130359161542401  0.8050450026881251
  0.0123262510692541  0.1621362381103069  0.1952652739503833
  0.4876737489307459  0.8378637618896931  0.6952652739503904
  0.9876737489307459  0.6621362381103069  0.3047347260496167
  0.5123262510692541  0.3378637618896931  0.8047347260496096
  0.1227104568015420  0.9793630423418591  0.1959958336517289
  0.3772895431984580  0.0206369576581409  0.6959958336517289
  0.8772895431984651  0.4793630423418591  0.3040041663482711
  0.6227104568015349  0.5206369576581409  0.8040041663482711
  0.6199402173461053  0.4747772826637444  0.1372669757974592
  0.8800597826538947  0.5252227173362627  0.6372669757974663
  0.3800597826538947  0.9747772826637373  0.3627330242025337
  0.1199402173461053  0.0252227173362556  0.8627330242025337
  0.6115515143016665  0.0024377416063501  0.0270953051354468
  0.8884484856983335  0.9975622583936570  0.5270953051354468
  0.3884484856983335  0.5024377416063430  0.4729046948645532
  0.1115515143016665  0.4975622583936570  0.9729046948645532
  0.5955370546377807  0.7415711792072486  0.0834227014817657
  0.9044629453622193  0.2584288207927514  0.5834227014817657
  0.4044629453622193  0.2415711792072486  0.4165772985182343
  0.0955370546377807  0.7584288207927514  0.9165772985182343
  0.4031632759147001  0.2351827583706267  0.0842854985393728
  0.0968367240852928  0.7648172416293733  0.5842854985393728
  0.5968367240852928  0.7351827583706267  0.4157145014606272
  0.9031632759147072  0.2648172416293662  0.9157145014606272
  0.9053128402137389  0.2126888923944108  0.2505060250017976
  0.5946871597862611  0.7873111076055963  0.7505060250017976
  0.0946871597862611  0.7126888923944037  0.2494939749982024
  0.4053128402137389  0.2873111076055892  0.7494939749982024
  0.4832723532228442  0.7503898432704474  0.1817266031148534
  0.0167276467771558  0.2496101567295597  0.6817266031148534
  0.5167276467771558  0.2503898432704403  0.3182733968851466
  0.9832723532228442  0.7496101567295526  0.8182733968851466
  0.2601052719525043  0.2808247140889222  0.1787857417808283
  0.2398947280474957  0.7191752859110920  0.6787857417808354
  0.7398947280474886  0.7808247140889080  0.3212142582191717
  0.7601052719525114  0.2191752859110778  0.8212142582191646
  0.9839451927419844  0.7025584696505405  0.1513664823026488
  0.5160548072580156  0.2974415303494595  0.6513664823026559
  0.0160548072580085  0.2025584696505405  0.3486335176973370
  0.4839451927419915  0.7974415303494595  0.8486335176973441
  0.7606938797935641  0.1742703367585321  0.1557260425416231
  0.7393061202064359  0.8257296632414679  0.6557260425416231
  0.2393061202064288  0.6742703367585321  0.3442739574583769
  0.2606938797935641  0.3257296632414679  0.8442739574583769
  0.4835094083240392  0.7210787313546589  0.9855525684205091
  0.0164905916759608  0.2789212686453411  0.4855525684205020
  0.5164905916759679  0.2210787313546589  0.5144474315794909
  0.9835094083240321  0.7789212686453411  0.0144474315794980
  0.2315960240956727  0.1932450505564844  0.9912542161346423
  0.2684039759043202  0.8067549494435227  0.4912542161346423
  0.7684039759043202  0.6932450505564844  0.5087457838653577
  0.7315960240956798  0.3067549494435227  0.0087457838653577
 
  0.00000000E+00  0.00000000E+00  0.00000000E+00
  0.00000000E+00  0.00000000E+00  0.00000000E+00
  0.00000000E+00  0.00000000E+00  0.00000000E+00
  0.00000000E+00  0.00000000E+00  0.00000000E+00
  0.00000000E+00  0.00000000E+00  0.00000000E+00
  0.00000000E+00  0.00000000E+00  0.00000000E+00
  0.00000000E+00  0.00000000E+00  0.00000000E+00
  0.00000000E+00  0.00000000E+00  0.00000000E+00
  0.00000000E+00  0.00000000E+00  0.00000000E+00
  0.00000000E+00  0.00000000E+00  0.00000000E+00
  0.00000000E+00  0.00000000E+00  0.00000000E+00
  0.00000000E+00  0.00000000E+00  0.00000000E+00
  0.00000000E+00  0.00000000E+00  0.00000000E+00
  0.00000000E+00  0.00000000E+00  0.00000000E+00
  0.00000000E+00  0.00000000E+00  0.00000000E+00
  0.00000000E+00  0.00000000E+00  0.00000000E+00
  0.00000000E+00  0.00000000E+00  0.00000000E+00
  0.00000000E+00  0.00000000E+00  0.00000000E+00
  0.00000000E+00  0.00000000E+00  0.00000000E+00
  0.00000000E+00  0.00000000E+00  0.00000000E+00
  0.00000000E+00  0.00000000E+00  0.00000000E+00
  0.00000000E+00  0.00000000E+00  0.00000000E+00
  0.00000000E+00  0.00000000E+00  0.00000000E+00
  0.00000000E+00  0.00000000E+00  0.00000000E+00
  0.00000000E+00  0.00000000E+00  0.00000000E+00
  0.00000000E+00  0.00000000E+00  0.00000000E+00
  0.00000000E+00  0.00000000E+00  0.00000000E+00
  0.00000000E+00  0.00000000E+00  0.00000000E+00
  0.00000000E+00  0.00000000E+00  0.00000000E+00
  0.00000000E+00  0.00000000E+00  0.00000000E+00
  0.00000000E+00  0.00000000E+00  0.00000000E+00
  0.00000000E+00  0.00000000E+00  0.00000000E+00
  0.00000000E+00  0.00000000E+00  0.00000000E+00
  0.00000000E+00  0.00000000E+00  0.00000000E+00
  0.00000000E+00  0.00000000E+00  0.00000000E+00
  0.00000000E+00  0.00000000E+00  0.00000000E+00
  0.00000000E+00  0.00000000E+00  0.00000000E+00
  0.00000000E+00  0.00000000E+00  0.00000000E+00
  0.00000000E+00  0.00000000E+00  0.00000000E+00
  0.00000000E+00  0.00000000E+00  0.00000000E+00
  0.00000000E+00  0.00000000E+00  0.00000000E+00
  0.00000000E+00  0.00000000E+00  0.00000000E+00
  0.00000000E+00  0.00000000E+00  0.00000000E+00
  0.00000000E+00  0.00000000E+00  0.00000000E+00
  0.00000000E+00  0.00000000E+00  0.00000000E+00
  0.00000000E+00  0.00000000E+00  0.00000000E+00
  0.00000000E+00  0.00000000E+00  0.00000000E+00
  0.00000000E+00  0.00000000E+00  0.00000000E+00
  0.00000000E+00  0.00000000E+00  0.00000000E+00
  0.00000000E+00  0.00000000E+00  0.00000000E+00
  0.00000000E+00  0.00000000E+00  0.00000000E+00
  0.00000000E+00  0.00000000E+00  0.00000000E+00
  0.00000000E+00  0.00000000E+00  0.00000000E+00
  0.00000000E+00  0.00000000E+00  0.00000000E+00
  0.00000000E+00  0.00000000E+00  0.00000000E+00
  0.00000000E+00  0.00000000E+00  0.00000000E+00
  0.00000000E+00  0.00000000E+00  0.00000000E+00
  0.00000000E+00  0.00000000E+00  0.00000000E+00
  0.00000000E+00  0.00000000E+00  0.00000000E+00
  0.00000000E+00  0.00000000E+00  0.00000000E+00
  0.00000000E+00  0.00000000E+00  0.00000000E+00
  0.00000000E+00  0.00000000E+00  0.00000000E+00
  0.00000000E+00  0.00000000E+00  0.00000000E+00
  0.00000000E+00  0.00000000E+00  0.00000000E+00
  0.00000000E+00  0.00000000E+00  0.00000000E+00
  0.00000000E+00  0.00000000E+00  0.00000000E+00
  0.00000000E+00  0.00000000E+00  0.00000000E+00
  0.00000000E+00  0.00000000E+00  0.00000000E+00
  0.00000000E+00  0.00000000E+00  0.00000000E+00
  0.00000000E+00  0.00000000E+00  0.00000000E+00
  0.00000000E+00  0.00000000E+00  0.00000000E+00
  0.00000000E+00  0.00000000E+00  0.00000000E+00
