Pb As O Cl                               100168
   1.00000000000000     
    10.3144048412673222   -0.0000018767674840    0.0000000000000000
    -5.1572007953053420    8.9325375558384401    0.0000000000000000
     0.0000000000000000    0.0000000000000000    6.9215552705907299
   Pb   As   O    Cl
    10     6    18     2
Direct
  0.3333333333333357  0.6666666666666643  0.9928777430538105
  0.6666666666666643  0.3333333333333357  0.4928777430538105
  0.3333333333333357  0.6666666666666643  0.5071222569461895
  0.6666666666666643  0.3333333333333357  0.0071222569461895
  0.2636978039776849  0.0379906515759529  0.2500000000000000
  0.0379906515759529  0.7742928475982609  0.7500000000000000
  0.7742928475982609  0.7363021960223151  0.2500000000000000
  0.2257071524017391  0.2636978039776849  0.7500000000000000
  0.9620093484240471  0.2257071524017391  0.2500000000000000
  0.7363021960223151  0.9620093484240471  0.7500000000000000
  0.4144958880859093  0.4017428798130283  0.2500000000000000
  0.4017428798130283  0.9872469917271118  0.7500000000000000
  0.9872469917271118  0.5855041119140907  0.2500000000000000
  0.0127530082728882  0.4144958880859093  0.7500000000000000
  0.5982571201869717  0.0127530082728882  0.2500000000000000
  0.5855041119140907  0.5982571201869717  0.7500000000000000
  0.6152259242996152  0.4666130674634275  0.2500000000000000
  0.4666130674634275  0.8513871431638123  0.7500000000000000
  0.8513871431638123  0.3847740757003848  0.2500000000000000
  0.1486128568361877  0.6152259242996152  0.7500000000000000
  0.5333869325365725  0.1486128568361877  0.2500000000000000
  0.3847740757003848  0.5333869325365725  0.7500000000000000
  0.3721160815884872  0.2758476148355840  0.0536625234247907
  0.2758476148355840  0.9037315332470968  0.5536625234247907
  0.3721160815884872  0.2758476148355840  0.4463374765752093
  0.9037315332470968  0.6278839184115128  0.4463374765752093
  0.0962684667529032  0.3721160815884872  0.9463374765752093
  0.7241523851644160  0.0962684667529032  0.4463374765752093
  0.2758476148355840  0.9037315332470968  0.9463374765752093
  0.6278839184115128  0.7241523851644160  0.5536625234247907
  0.6278839184115128  0.7241523851644160  0.9463374765752093
  0.7241523851644160  0.0962684667529032  0.0536625234247907
  0.9037315332470968  0.6278839184115128  0.0536625234247907
  0.0962684667529032  0.3721160815884872  0.5536625234247907
  0.0000000000000000  0.0000000000000000  0.0000000000000000
  0.0000000000000000  0.0000000000000000  0.5000000000000000
 
  0.00000000E+00  0.00000000E+00  0.00000000E+00
  0.00000000E+00  0.00000000E+00  0.00000000E+00
  0.00000000E+00  0.00000000E+00  0.00000000E+00
  0.00000000E+00  0.00000000E+00  0.00000000E+00
  0.00000000E+00  0.00000000E+00  0.00000000E+00
  0.00000000E+00  0.00000000E+00  0.00000000E+00
  0.00000000E+00  0.00000000E+00  0.00000000E+00
  0.00000000E+00  0.00000000E+00  0.00000000E+00
  0.00000000E+00  0.00000000E+00  0.00000000E+00
  0.00000000E+00  0.00000000E+00  0.00000000E+00
  0.00000000E+00  0.00000000E+00  0.00000000E+00
  0.00000000E+00  0.00000000E+00  0.00000000E+00
  0.00000000E+00  0.00000000E+00  0.00000000E+00
  0.00000000E+00  0.00000000E+00  0.00000000E+00
  0.00000000E+00  0.00000000E+00  0.00000000E+00
  0.00000000E+00  0.00000000E+00  0.00000000E+00
  0.00000000E+00  0.00000000E+00  0.00000000E+00
  0.00000000E+00  0.00000000E+00  0.00000000E+00
  0.00000000E+00  0.00000000E+00  0.00000000E+00
  0.00000000E+00  0.00000000E+00  0.00000000E+00
  0.00000000E+00  0.00000000E+00  0.00000000E+00
  0.00000000E+00  0.00000000E+00  0.00000000E+00
  0.00000000E+00  0.00000000E+00  0.00000000E+00
  0.00000000E+00  0.00000000E+00  0.00000000E+00
  0.00000000E+00  0.00000000E+00  0.00000000E+00
  0.00000000E+00  0.00000000E+00  0.00000000E+00
  0.00000000E+00  0.00000000E+00  0.00000000E+00
  0.00000000E+00  0.00000000E+00  0.00000000E+00
  0.00000000E+00  0.00000000E+00  0.00000000E+00
  0.00000000E+00  0.00000000E+00  0.00000000E+00
  0.00000000E+00  0.00000000E+00  0.00000000E+00
  0.00000000E+00  0.00000000E+00  0.00000000E+00
  0.00000000E+00  0.00000000E+00  0.00000000E+00
  0.00000000E+00  0.00000000E+00  0.00000000E+00
  0.00000000E+00  0.00000000E+00  0.00000000E+00
  0.00000000E+00  0.00000000E+00  0.00000000E+00
