H Tl B                                   151981
   1.00000000000000     
     0.0000000000000000    5.2532445922344824    5.2532445922344824
     5.2532445922344824    0.0000000000000000    5.2532445922344824
     5.2532445922344824    5.2532445922344824    0.0000000000000000
   H    Tl   B 
    12     2    12
Direct
  0.3790870468199827  0.9080039071076840  0.0919960928923160
  0.0919960928923160  0.9080039071076840  0.6209129531800173
  0.3790870468199827  0.0919960928923160  0.6209129531800173
  0.9080039071076840  0.0919960928923160  0.3790870468199827
  0.9080039071076840  0.6209129531800173  0.0919960928923160
  0.6209129531800173  0.3790870468199827  0.0919960928923160
  0.3790870468199827  0.6209129531800173  0.9080039071076840
  0.0919960928923160  0.3790870468199827  0.9080039071076840
  0.0919960928923160  0.6209129531800173  0.3790870468199827
  0.6209129531800173  0.9080039071076840  0.3790870468199827
  0.9080039071076840  0.3790870468199827  0.6209129531800173
  0.6209129531800173  0.0919960928923160  0.9080039071076840
  0.7500000000000000  0.7500000000000000  0.7500000000000000
  0.2500000000000000  0.2500000000000000  0.2500000000000000
  0.2207556912803526  0.9472074565935102  0.0527925434064898
  0.0527925434064898  0.9472074565935102  0.7792443087196474
  0.2207556912803526  0.0527925434064898  0.7792443087196474
  0.9472074565935102  0.0527925434064898  0.2207556912803526
  0.9472074565935102  0.7792443087196474  0.0527925434064898
  0.7792443087196474  0.2207556912803526  0.0527925434064898
  0.2207556912803526  0.7792443087196474  0.9472074565935102
  0.0527925434064898  0.2207556912803526  0.9472074565935102
  0.0527925434064898  0.7792443087196474  0.2207556912803526
  0.7792443087196474  0.9472074565935102  0.2207556912803526
  0.9472074565935102  0.2207556912803526  0.7792443087196474
  0.7792443087196474  0.0527925434064898  0.9472074565935102
 
  0.00000000E+00  0.00000000E+00  0.00000000E+00
  0.00000000E+00  0.00000000E+00  0.00000000E+00
  0.00000000E+00  0.00000000E+00  0.00000000E+00
  0.00000000E+00  0.00000000E+00  0.00000000E+00
  0.00000000E+00  0.00000000E+00  0.00000000E+00
  0.00000000E+00  0.00000000E+00  0.00000000E+00
  0.00000000E+00  0.00000000E+00  0.00000000E+00
  0.00000000E+00  0.00000000E+00  0.00000000E+00
  0.00000000E+00  0.00000000E+00  0.00000000E+00
  0.00000000E+00  0.00000000E+00  0.00000000E+00
  0.00000000E+00  0.00000000E+00  0.00000000E+00
  0.00000000E+00  0.00000000E+00  0.00000000E+00
  0.00000000E+00  0.00000000E+00  0.00000000E+00
  0.00000000E+00  0.00000000E+00  0.00000000E+00
  0.00000000E+00  0.00000000E+00  0.00000000E+00
  0.00000000E+00  0.00000000E+00  0.00000000E+00
  0.00000000E+00  0.00000000E+00  0.00000000E+00
  0.00000000E+00  0.00000000E+00  0.00000000E+00
  0.00000000E+00  0.00000000E+00  0.00000000E+00
  0.00000000E+00  0.00000000E+00  0.00000000E+00
  0.00000000E+00  0.00000000E+00  0.00000000E+00
  0.00000000E+00  0.00000000E+00  0.00000000E+00
  0.00000000E+00  0.00000000E+00  0.00000000E+00
  0.00000000E+00  0.00000000E+00  0.00000000E+00
  0.00000000E+00  0.00000000E+00  0.00000000E+00
  0.00000000E+00  0.00000000E+00  0.00000000E+00
