Mg O
   1.0
     4.2468930196252002    0.0000000000000000    0.0000000000000000
     0.0000000000000000    4.2468930196252002    0.0000000000000000
     0.0000000000000000    0.0000000000000000    4.2468930196252002
Mg O
   4    4
Direct
  0.0000000000000000  0.0000000000000000  0.0000000000000000
  0.0000000000000000  0.5000000000000000  0.5000000000000000
  0.5000000000000000  0.0000000000000000  0.5000000000000000
  0.5000000000000000  0.5000000000000000  0.0000000000000000
  0.5000000000000000  0.0000000000000000  0.0000000000000000
  0.5000000000000000  0.5000000000000000  0.5000000000000000
  0.0000000000000000  0.0000000000000000  0.5000000000000000
  0.0000000000000000  0.5000000000000000  0.0000000000000000