Mg150 Se150
1.0
21.269039 0.000000 0.000000
-10.634519 18.419528 0.000000
0.000000 0.000000 20.655801
Mg Se
150 150
direct
0.133333 0.066667 0.166252 Mg
0.133333 0.066667 0.499586 Mg
0.133333 0.066667 0.832919 Mg
0.133333 0.266667 0.166252 Mg
0.133333 0.266667 0.499586 Mg
0.133333 0.266667 0.832919 Mg
0.133333 0.466667 0.166252 Mg
0.133333 0.466667 0.499586 Mg
0.133333 0.466667 0.832919 Mg
0.133333 0.666667 0.166252 Mg
0.133333 0.666667 0.499586 Mg
0.133333 0.666667 0.832919 Mg
0.133333 0.866667 0.166252 Mg
0.133333 0.866667 0.499586 Mg
0.133333 0.866667 0.832919 Mg
0.333333 0.066667 0.166252 Mg
0.333333 0.066667 0.499586 Mg
0.333333 0.066667 0.832919 Mg
0.333333 0.266667 0.166252 Mg
0.333333 0.266667 0.499586 Mg
0.333333 0.266667 0.832919 Mg
0.333333 0.466667 0.166252 Mg
0.333333 0.466667 0.499586 Mg
0.333333 0.466667 0.832919 Mg
0.333333 0.666667 0.166252 Mg
0.333333 0.666667 0.499586 Mg
0.333333 0.666667 0.832919 Mg
0.333333 0.866667 0.166252 Mg
0.333333 0.866667 0.499586 Mg
0.333333 0.866667 0.832919 Mg
0.533333 0.066667 0.166252 Mg
0.533333 0.066667 0.499586 Mg
0.533333 0.066667 0.832919 Mg
0.533333 0.266667 0.166252 Mg
0.533333 0.266667 0.499586 Mg
0.533333 0.266667 0.832919 Mg
0.533333 0.466667 0.166252 Mg
0.533333 0.466667 0.499586 Mg
0.533333 0.466667 0.832919 Mg
0.533333 0.666667 0.166252 Mg
0.533333 0.666667 0.499586 Mg
0.533333 0.666667 0.832919 Mg
0.533333 0.866667 0.166252 Mg
0.533333 0.866667 0.499586 Mg
0.533333 0.866667 0.832919 Mg
0.733333 0.066667 0.166252 Mg
0.733333 0.066667 0.499586 Mg
0.733333 0.066667 0.832919 Mg
0.733333 0.266667 0.166252 Mg
0.733333 0.266667 0.499586 Mg
0.733333 0.266667 0.832919 Mg
0.733333 0.466667 0.166252 Mg
0.733333 0.466667 0.499586 Mg
0.733333 0.466667 0.832919 Mg
0.733333 0.666667 0.166252 Mg
0.733333 0.666667 0.499586 Mg
0.733333 0.666667 0.832919 Mg
0.733333 0.866667 0.166252 Mg
0.733333 0.866667 0.499586 Mg
0.733333 0.866667 0.832919 Mg
0.933333 0.066667 0.166252 Mg
0.933333 0.066667 0.499586 Mg
0.933333 0.066667 0.832919 Mg
0.933333 0.266667 0.166252 Mg
0.933333 0.266667 0.499586 Mg
0.933333 0.266667 0.832919 Mg
0.933333 0.466667 0.166252 Mg
0.933333 0.466667 0.499586 Mg
0.933333 0.466667 0.832919 Mg
0.933333 0.666667 0.166252 Mg
0.933333 0.666667 0.499586 Mg
0.933333 0.666667 0.832919 Mg
0.933333 0.866667 0.166252 Mg
0.933333 0.866667 0.499586 Mg
0.933333 0.866667 0.832919 Mg
0.066667 0.133333 0.332919 Mg
0.066667 0.133333 0.666252 Mg
0.066667 0.133333 0.999586 Mg
0.066667 0.333333 0.332919 Mg
0.066667 0.333333 0.666252 Mg
0.066667 0.333333 0.999586 Mg
0.066667 0.533333 0.332919 Mg
0.066667 0.533333 0.666252 Mg
0.066667 0.533333 0.999586 Mg
0.066667 0.733333 0.332919 Mg
0.066667 0.733333 0.666252 Mg
0.066667 0.733333 0.999586 Mg
0.066667 0.933333 0.332919 Mg
0.066667 0.933333 0.666252 Mg
0.066667 0.933333 0.999586 Mg
0.266667 0.133333 0.332919 Mg
0.266667 0.133333 0.666252 Mg
0.266667 0.133333 0.999586 Mg
0.266667 0.333333 0.332919 Mg
0.266667 0.333333 0.666252 Mg
0.266667 0.333333 0.999586 Mg
0.266667 0.533333 0.332919 Mg
0.266667 0.533333 0.666252 Mg
0.266667 0.533333 0.999586 Mg
0.266667 0.733333 0.332919 Mg
0.266667 0.733333 0.666252 Mg
0.266667 0.733333 0.999586 Mg
0.266667 0.933333 0.332919 Mg
0.266667 0.933333 0.666252 Mg
0.266667 0.933333 0.999586 Mg
0.466667 0.133333 0.332919 Mg
0.466667 0.133333 0.666252 Mg
0.466667 0.133333 0.999586 Mg
0.466667 0.333333 0.332919 Mg
0.466667 0.333333 0.666252 Mg
0.466667 0.333333 0.999586 Mg
0.466667 0.533333 0.332919 Mg
0.466667 0.533333 0.666252 Mg
0.466667 0.533333 0.999586 Mg
0.466667 0.733333 0.332919 Mg
0.466667 0.733333 0.666252 Mg
0.466667 0.733333 0.999586 Mg
0.466667 0.933333 0.332919 Mg
0.466667 0.933333 0.666252 Mg
0.466667 0.933333 0.999586 Mg
0.666667 0.133333 0.332919 Mg
0.666667 0.133333 0.666252 Mg
0.666667 0.133333 0.999586 Mg
0.666667 0.333333 0.332919 Mg
0.666667 0.333333 0.666252 Mg
0.666667 0.333333 0.999586 Mg
0.666667 0.533333 0.332919 Mg
0.666667 0.533333 0.666252 Mg
0.666667 0.533333 0.999586 Mg
0.666667 0.733333 0.332919 Mg
0.666667 0.733333 0.666252 Mg
0.666667 0.733333 0.999586 Mg
0.666667 0.933333 0.332919 Mg
0.666667 0.933333 0.666252 Mg
0.666667 0.933333 0.999586 Mg
0.866667 0.133333 0.332919 Mg
0.866667 0.133333 0.666252 Mg
0.866667 0.133333 0.999586 Mg
0.866667 0.333333 0.332919 Mg
0.866667 0.333333 0.666252 Mg
0.866667 0.333333 0.999586 Mg
0.866667 0.533333 0.332919 Mg
0.866667 0.533333 0.666252 Mg
0.866667 0.533333 0.999586 Mg
0.866667 0.733333 0.332919 Mg
0.866667 0.733333 0.666252 Mg
0.866667 0.733333 0.999586 Mg
0.866667 0.933333 0.332919 Mg
0.866667 0.933333 0.666252 Mg
0.866667 0.933333 0.999586 Mg
0.133333 0.066667 0.292081 Se
0.133333 0.066667 0.625414 Se
0.133333 0.066667 0.958748 Se
0.133333 0.266667 0.292081 Se
0.133333 0.266667 0.625414 Se
0.133333 0.266667 0.958748 Se
0.133333 0.466667 0.292081 Se
0.133333 0.466667 0.625414 Se
0.133333 0.466667 0.958748 Se
0.133333 0.666667 0.292081 Se
0.133333 0.666667 0.625414 Se
0.133333 0.666667 0.958748 Se
0.133333 0.866667 0.292081 Se
0.133333 0.866667 0.625414 Se
0.133333 0.866667 0.958748 Se
0.333333 0.066667 0.292081 Se
0.333333 0.066667 0.625414 Se
0.333333 0.066667 0.958748 Se
0.333333 0.266667 0.292081 Se
0.333333 0.266667 0.625414 Se
0.333333 0.266667 0.958748 Se
0.333333 0.466667 0.292081 Se
0.333333 0.466667 0.625414 Se
0.333333 0.466667 0.958748 Se
0.333333 0.666667 0.292081 Se
0.333333 0.666667 0.625414 Se
0.333333 0.666667 0.958748 Se
0.333333 0.866667 0.292081 Se
0.333333 0.866667 0.625414 Se
0.333333 0.866667 0.958748 Se
0.533333 0.066667 0.292081 Se
0.533333 0.066667 0.625414 Se
0.533333 0.066667 0.958748 Se
0.533333 0.266667 0.292081 Se
0.533333 0.266667 0.625414 Se
0.533333 0.266667 0.958748 Se
0.533333 0.466667 0.292081 Se
0.533333 0.466667 0.625414 Se
0.533333 0.466667 0.958748 Se
0.533333 0.666667 0.292081 Se
0.533333 0.666667 0.625414 Se
0.533333 0.666667 0.958748 Se
0.533333 0.866667 0.292081 Se
0.533333 0.866667 0.625414 Se
0.533333 0.866667 0.958748 Se
0.733333 0.066667 0.292081 Se
0.733333 0.066667 0.625414 Se
0.733333 0.066667 0.958748 Se
0.733333 0.266667 0.292081 Se
0.733333 0.266667 0.625414 Se
0.733333 0.266667 0.958748 Se
0.733333 0.466667 0.292081 Se
0.733333 0.466667 0.625414 Se
0.733333 0.466667 0.958748 Se
0.733333 0.666667 0.292081 Se
0.733333 0.666667 0.625414 Se
0.733333 0.666667 0.958748 Se
0.733333 0.866667 0.292081 Se
0.733333 0.866667 0.625414 Se
0.733333 0.866667 0.958748 Se
0.933333 0.066667 0.292081 Se
0.933333 0.066667 0.625414 Se
0.933333 0.066667 0.958748 Se
0.933333 0.266667 0.292081 Se
0.933333 0.266667 0.625414 Se
0.933333 0.266667 0.958748 Se
0.933333 0.466667 0.292081 Se
0.933333 0.466667 0.625414 Se
0.933333 0.466667 0.958748 Se
0.933333 0.666667 0.292081 Se
0.933333 0.666667 0.625414 Se
0.933333 0.666667 0.958748 Se
0.933333 0.866667 0.292081 Se
0.933333 0.866667 0.625414 Se
0.933333 0.866667 0.958748 Se
0.066667 0.133333 0.125414 Se
0.066667 0.133333 0.458748 Se
0.066667 0.133333 0.792081 Se
0.066667 0.333333 0.125414 Se
0.066667 0.333333 0.458748 Se
0.066667 0.333333 0.792081 Se
0.066667 0.533333 0.125414 Se
0.066667 0.533333 0.458748 Se
0.066667 0.533333 0.792081 Se
0.066667 0.733333 0.125414 Se
0.066667 0.733333 0.458748 Se
0.066667 0.733333 0.792081 Se
0.066667 0.933333 0.125414 Se
0.066667 0.933333 0.458748 Se
0.066667 0.933333 0.792081 Se
0.266667 0.133333 0.125414 Se
0.266667 0.133333 0.458748 Se
0.266667 0.133333 0.792081 Se
0.266667 0.333333 0.125414 Se
0.266667 0.333333 0.458748 Se
0.266667 0.333333 0.792081 Se
0.266667 0.533333 0.125414 Se
0.266667 0.533333 0.458748 Se
0.266667 0.533333 0.792081 Se
0.266667 0.733333 0.125414 Se
0.266667 0.733333 0.458748 Se
0.266667 0.733333 0.792081 Se
0.266667 0.933333 0.125414 Se
0.266667 0.933333 0.458748 Se
0.266667 0.933333 0.792081 Se
0.466667 0.133333 0.125414 Se
0.466667 0.133333 0.458748 Se
0.466667 0.133333 0.792081 Se
0.466667 0.333333 0.125414 Se
0.466667 0.333333 0.458748 Se
0.466667 0.333333 0.792081 Se
0.466667 0.533333 0.125414 Se
0.466667 0.533333 0.458748 Se
0.466667 0.533333 0.792081 Se
0.466667 0.733333 0.125414 Se
0.466667 0.733333 0.458748 Se
0.466667 0.733333 0.792081 Se
0.466667 0.933333 0.125414 Se
0.466667 0.933333 0.458748 Se
0.466667 0.933333 0.792081 Se
0.666667 0.133333 0.125414 Se
0.666667 0.133333 0.458748 Se
0.666667 0.133333 0.792081 Se
0.666667 0.333333 0.125414 Se
0.666667 0.333333 0.458748 Se
0.666667 0.333333 0.792081 Se
0.666667 0.533333 0.125414 Se
0.666667 0.533333 0.458748 Se
0.666667 0.533333 0.792081 Se
0.666667 0.733333 0.125414 Se
0.666667 0.733333 0.458748 Se
0.666667 0.733333 0.792081 Se
0.666667 0.933333 0.125414 Se
0.666667 0.933333 0.458748 Se
0.666667 0.933333 0.792081 Se
0.866667 0.133333 0.125414 Se
0.866667 0.133333 0.458748 Se
0.866667 0.133333 0.792081 Se
0.866667 0.333333 0.125414 Se
0.866667 0.333333 0.458748 Se
0.866667 0.333333 0.792081 Se
0.866667 0.533333 0.125414 Se
0.866667 0.533333 0.458748 Se
0.866667 0.533333 0.792081 Se
0.866667 0.733333 0.125414 Se
0.866667 0.733333 0.458748 Se
0.866667 0.733333 0.792081 Se
0.866667 0.933333 0.125414 Se
0.866667 0.933333 0.458748 Se
0.866667 0.933333 0.792081 Se
