Sn2Nb2O7                                
1
   0.00000000000000   5.28878752069264   5.28878752069264
   5.28878752069264   0.00000000000000   5.28878752069264
   5.28878752069264   5.28878752069264   0.00000000000000
Sn Nb O 
4 4 14 
Direct(22)
   0.62500000000000   0.12500000000000   0.62500000000000  Sn 
   0.62500000000000   0.62500000000000   0.62500000000000  Sn 
   0.12500000000000   0.62500000000000   0.62500000000000  Sn 
   0.62499999999999   0.62500000000000   0.12500000000000  Sn 
   0.12500000000000   0.12500000000000   0.12499999999999  Nb 
   0.62500000000000   0.12499999999999   0.12500000000000  Nb 
   0.12500000000000   0.62500000000000   0.12500000000000  Nb 
   0.12499999999999   0.12500000000000   0.62500000000000  Nb 
   0.18774907103707   0.18774907103708   0.81225092896292  O 
   0.18774907103707   0.81225092896292   0.18774907103707  O 
   0.43774907103708   0.43774907103707   0.06225092896292  O 
   0.18774907103707   0.81225092896292   0.81225092896292  O 
   0.06225092896292   0.06225092896292   0.43774907103707  O 
   0.81225092896292   0.18774907103707   0.18774907103707  O 
   0.06225092896292   0.43774907103707   0.06225092896292  O 
   0.06225092896292   0.43774907103707   0.43774907103707  O 
   0.50000000000000   0.49999999999999   0.50000000000000  O 
   0.43774907103708   0.06225092896292   0.06225092896292  O 
   0.81225092896292   0.18774907103708   0.81225092896292  O 
   0.43774907103707   0.06225092896292   0.43774907103708  O 
   0.75000000000000   0.75000000000000   0.75000000000000  O 
   0.81225092896292   0.81225092896292   0.18774907103707  O 
