Mg O
   1.0
   8.49378603925040   0.00000000000000   0.00000000000000
   0.00000000000000   8.49378603925040   0.00000000000000
   0.00000000000000   0.00000000000000   8.49378603925040
Mg O 
32 32 
Direct(64)
   0.00000000000000   0.00000000000000   0.00000000000000  Mg 
   0.00000000000000   0.00000000000000   0.50000000000000  Mg 
   0.00000000000000   0.50000000000000   0.00000000000000  Mg 
   0.00000000000000   0.50000000000000   0.50000000000000  Mg 
   0.50000000000000   0.00000000000000   0.00000000000000  Mg 
   0.50000000000000   0.00000000000000   0.50000000000000  Mg 
   0.50000000000000   0.50000000000000   0.00000000000000  Mg 
   0.50000000000000   0.50000000000000   0.50000000000000  Mg 
   0.00000000000000   0.25000000000000   0.25000000000000  Mg 
   0.00000000000000   0.25000000000000   0.74999999999999  Mg 
   0.00000000000000   0.74999999999999   0.25000000000000  Mg 
   0.00000000000000   0.74999999999999   0.74999999999999  Mg 
   0.50000000000000   0.25000000000000   0.25000000000000  Mg 
   0.50000000000000   0.25000000000000   0.74999999999999  Mg 
   0.50000000000000   0.74999999999999   0.25000000000000  Mg 
   0.50000000000000   0.74999999999999   0.74999999999999  Mg 
   0.25000000000000   0.00000000000000   0.25000000000000  Mg 
   0.25000000000000   0.00000000000000   0.74999999999999  Mg 
   0.25000000000000   0.50000000000000   0.25000000000000  Mg 
   0.25000000000000   0.50000000000000   0.74999999999999  Mg 
   0.74999999999999   0.00000000000000   0.25000000000000  Mg 
   0.74999999999999   0.00000000000000   0.74999999999999  Mg 
   0.74999999999999   0.50000000000000   0.25000000000000  Mg 
   0.74999999999999   0.50000000000000   0.74999999999999  Mg 
   0.25000000000000   0.25000000000000   0.00000000000000  Mg 
   0.25000000000000   0.25000000000000   0.50000000000000  Mg 
   0.25000000000000   0.74999999999999   0.00000000000000  Mg 
   0.25000000000000   0.74999999999999   0.50000000000000  Mg 
   0.74999999999999   0.25000000000000   0.00000000000000  Mg 
   0.74999999999999   0.25000000000000   0.50000000000000  Mg 
   0.74999999999999   0.74999999999999   0.00000000000000  Mg 
   0.74999999999999   0.74999999999999   0.50000000000000  Mg 
   0.25000000000000   0.25000000000000   0.25000000000000  O 
   0.25000000000000   0.25000000000000   0.74999999999999  O 
   0.25000000000000   0.74999999999999   0.25000000000000  O 
   0.25000000000000   0.74999999999999   0.74999999999999  O 
   0.74999999999999   0.25000000000000   0.25000000000000  O 
   0.74999999999999   0.25000000000000   0.74999999999999  O 
   0.74999999999999   0.74999999999999   0.25000000000000  O 
   0.74999999999999   0.74999999999999   0.74999999999999  O 
   0.25000000000000   0.00000000000000   0.00000000000000  O 
   0.25000000000000   0.00000000000000   0.50000000000000  O 
   0.25000000000000   0.50000000000000   0.00000000000000  O 
   0.25000000000000   0.50000000000000   0.50000000000000  O 
   0.74999999999999   0.00000000000000   0.00000000000000  O 
   0.74999999999999   0.00000000000000   0.50000000000000  O 
   0.74999999999999   0.50000000000000   0.00000000000000  O 
   0.74999999999999   0.50000000000000   0.50000000000000  O 
   0.00000000000000   0.25000000000000   0.00000000000000  O 
   0.00000000000000   0.25000000000000   0.50000000000000  O 
   0.00000000000000   0.74999999999999   0.00000000000000  O 
   0.00000000000000   0.74999999999999   0.50000000000000  O 
   0.50000000000000   0.25000000000000   0.00000000000000  O 
   0.50000000000000   0.25000000000000   0.50000000000000  O 
   0.50000000000000   0.74999999999999   0.00000000000000  O 
   0.50000000000000   0.74999999999999   0.50000000000000  O 
   0.00000000000000   0.00000000000000   0.25000000000000  O 
   0.00000000000000   0.00000000000000   0.74999999999999  O 
   0.00000000000000   0.50000000000000   0.25000000000000  O 
   0.00000000000000   0.50000000000000   0.74999999999999  O 
   0.50000000000000   0.00000000000000   0.25000000000000  O 
   0.50000000000000   0.00000000000000   0.74999999999999  O 
   0.50000000000000   0.50000000000000   0.25000000000000  O 
   0.50000000000000   0.50000000000000   0.74999999999999  O 
