Si40 P48 O200
1.0
15.782747 -0.000000 0.000000
0.000000 13.668260 0.000000
3.945687 -2.278043 16.182258
Si P O
40 48 200
direct
0.000000 0.000000 0.000000 Si
0.500000 0.000000 0.000000 Si
0.250000 0.500000 0.000000 Si
0.125000 0.250000 0.500000 Si
0.750000 0.500000 0.000000 Si
0.625000 0.250000 0.500000 Si
0.375000 0.750000 0.500000 Si
0.875000 0.750000 0.500000 Si
-0.307605 0.205070 1.230418 Si
0.192395 0.205070 1.230418 Si
-0.057605 0.705070 1.230418 Si
-0.182605 0.455070 1.730418 Si
0.442395 0.705070 1.230418 Si
0.317395 0.455070 1.730418 Si
0.067395 0.955070 1.730418 Si
0.567395 0.955070 1.730418 Si
-0.067395 0.044930 0.269582 Si
0.432605 0.044930 0.269582 Si
0.182605 0.544930 0.269582 Si
0.057605 0.294930 0.769582 Si
0.682605 0.544930 0.269582 Si
0.557605 0.294930 0.769582 Si
0.307605 0.794930 0.769582 Si
0.807605 0.794930 0.769582 Si
-0.212236 0.141491 0.848945 Si
0.287764 0.141491 0.848945 Si
0.037764 0.641491 0.848945 Si
-0.087236 0.391491 1.348945 Si
0.537764 0.641491 0.848945 Si
0.412764 0.391491 1.348945 Si
0.162764 0.891491 1.348945 Si
0.662764 0.891491 1.348945 Si
-0.162764 0.108509 0.651055 Si
0.337236 0.108509 0.651055 Si
0.087236 0.608509 0.651055 Si
-0.037764 0.358509 1.151055 Si
0.587236 0.608509 0.651055 Si
0.462236 0.358509 1.151055 Si
0.212236 0.858509 1.151055 Si
0.712236 0.858509 1.151055 Si
-0.103283 -0.032752 0.861258 P
0.396717 -0.032752 0.861258 P
0.146717 0.467248 0.861258 P
0.021717 0.217248 1.361258 P
0.646717 0.467248 0.861258 P
0.521717 0.217248 1.361258 P
0.271717 0.717248 1.361258 P
0.771717 0.717248 1.361258 P
-0.235891 -0.093722 0.638742 P
0.264109 -0.093722 0.638742 P
0.014109 0.406278 0.638742 P
-0.110891 0.156278 1.138742 P
0.514109 0.406278 0.638742 P
0.389109 0.156278 1.138742 P
0.139109 0.656278 1.138742 P
0.639109 0.656278 1.138742 P
0.028551 0.130341 0.638742 P
0.528551 0.130341 0.638742 P
0.278551 0.630341 0.638742 P
0.153551 0.380341 1.138742 P
0.778551 0.630341 0.638742 P
0.653551 0.380341 1.138742 P
0.403551 0.880341 1.138742 P
0.903551 0.880341 1.138742 P
-0.403551 0.119659 0.861258 P
0.096449 0.119659 0.861258 P
-0.153551 0.619659 0.861258 P
-0.278551 0.369659 1.361258 P
0.346449 0.619659 0.861258 P
0.221449 0.369659 1.361258 P
-0.028551 0.869659 1.361258 P
0.471449 0.869659 1.361258 P
-0.139109 0.343722 0.861258 P
0.360891 0.343722 0.861258 P
0.110891 0.843722 0.861258 P
-0.014109 0.593722 1.361258 P
0.610891 0.843722 0.861258 P
0.485891 0.593722 1.361258 P
0.235891 1.093722 1.361258 P
0.735891 1.093722 1.361258 P
-0.271717 0.282752 0.638742 P
0.228283 0.282752 0.638742 P
-0.021717 0.782752 0.638742 P
-0.146717 0.532752 1.138742 P
0.478283 0.782752 0.638742 P
0.353283 0.532752 1.138742 P
0.103283 1.032752 1.138742 P
0.603283 1.032752 1.138742 P
-0.187500 0.125000 0.750000 O
0.312500 0.125000 0.750000 O
0.062500 0.625000 0.750000 O
-0.062500 0.375000 1.250000 O
0.562500 0.625000 0.750000 O
0.437500 0.375000 1.250000 O
0.187500 0.875000 1.250000 O
0.687500 0.875000 1.250000 O
-0.034079 0.007453 0.793804 O
0.465921 0.007453 0.793804 O
0.215921 0.507453 0.793804 O
0.090921 0.257453 1.293804 O
0.715921 0.507453 0.793804 O
0.590921 0.257453 1.293804 O
0.340921 0.757453 1.293804 O
0.840921 0.757453 1.293804 O
-0.187999 -0.109097 0.706196 O
0.312001 -0.109097 0.706196 O
0.062001 0.390903 0.706196 O
-0.062999 0.140903 1.206196 O
0.562001 0.390903 0.706196 O
0.437001 0.140903 1.206196 O
0.187001 0.640903 1.206196 O
0.687001 0.640903 1.206196 O
-0.000727 0.219648 0.706196 O
0.499273 0.219648 0.706196 O
0.249273 0.719648 0.706196 O
0.124273 0.469648 1.206196 O
0.749273 0.719648 0.706196 O
0.624273 0.469648 1.206196 O
0.374273 0.969648 1.206196 O
0.874273 0.969648 1.206196 O
-0.374273 0.030352 0.793804 O
0.125727 0.030352 0.793804 O
-0.124273 0.530352 0.793804 O
-0.249273 0.280352 1.293804 O
0.375727 0.530352 0.793804 O
0.250727 0.280352 1.293804 O
0.000727 0.780352 1.293804 O
0.500727 0.780352 1.293804 O
-0.187001 0.359097 0.793804 O
0.312999 0.359097 0.793804 O
0.062999 0.859097 0.793804 O
-0.062001 0.609097 1.293804 O
0.562999 0.859097 0.793804 O
0.437999 0.609097 1.293804 O
0.187999 1.109097 1.293804 O
0.687999 1.109097 1.293804 O
-0.340921 0.242547 0.706196 O
0.159079 0.242547 0.706196 O
-0.090921 0.742547 0.706196 O
-0.215921 0.492547 1.206196 O
0.409079 0.742547 0.706196 O
0.284079 0.492547 1.206196 O
0.034079 0.992547 1.206196 O
0.534079 0.992547 1.206196 O
0.051488 0.207769 0.439327 O
0.551488 0.207769 0.439327 O
0.301488 0.707769 0.439327 O
0.176488 0.457769 0.939327 O
0.801488 0.707769 0.439327 O
0.676488 0.457769 0.939327 O
0.426488 0.957769 0.939327 O
0.926488 0.957769 0.939327 O
-0.083597 0.082733 1.060673 O
0.416403 0.082733 1.060673 O
0.166403 0.582733 1.060673 O
0.041403 0.332733 1.560673 O
0.666403 0.582733 1.060673 O
0.541403 0.332733 1.560673 O
0.291403 0.832733 1.560673 O
0.791403 0.832733 1.560673 O
-0.285419 0.405373 1.060673 O
0.214581 0.405373 1.060673 O
-0.035419 0.905373 1.060673 O
-0.160419 0.655373 1.560673 O
0.464581 0.905373 1.060673 O
0.339581 0.655373 1.560673 O
0.089581 1.155373 1.560673 O
0.589581 1.155373 1.560673 O
-0.089581 -0.155373 0.439327 O
0.410419 -0.155373 0.439327 O
0.160419 0.344627 0.439327 O
0.035419 0.094627 0.939327 O
0.660419 0.344627 0.439327 O
0.535419 0.094627 0.939327 O
0.285419 0.594627 0.939327 O
0.785419 0.594627 0.939327 O
-0.291403 0.167267 0.439327 O
0.208597 0.167267 0.439327 O
-0.041403 0.667267 0.439327 O
-0.166403 0.417267 0.939327 O
0.458597 0.667267 0.439327 O
0.333597 0.417267 0.939327 O
0.083597 0.917267 0.939327 O
0.583597 0.917267 0.939327 O
-0.426488 0.042231 1.060673 O
0.073512 0.042231 1.060673 O
-0.176488 0.542231 1.060673 O
-0.301488 0.292231 1.560673 O
0.323512 0.542231 1.060673 O
0.198512 0.292231 1.560673 O
-0.051488 0.792231 1.560673 O
0.448512 0.792231 1.560673 O
-0.181458 0.046229 0.885134 O
0.318542 0.046229 0.885134 O
0.068542 0.546229 0.885134 O
-0.056458 0.296229 1.385134 O
0.568542 0.546229 0.885134 O
0.443542 0.296229 1.385134 O
0.193542 0.796229 1.385134 O
0.693542 0.796229 1.385134 O
-0.209773 0.012005 0.614866 O
0.290227 0.012005 0.614866 O
0.040227 0.512005 0.614866 O
-0.084773 0.262005 1.114866 O
0.540227 0.512005 0.614866 O
0.415227 0.262005 1.114866 O
0.165227 0.762005 1.114866 O
0.665227 0.762005 1.114866 O
-0.057833 0.091657 0.614866 O
0.442167 0.091657 0.614866 O
0.192167 0.591657 0.614866 O
0.067167 0.341657 1.114866 O
0.692167 0.591657 0.614866 O
0.567167 0.341657 1.114866 O
0.317167 0.841657 1.114866 O
0.817167 0.841657 1.114866 O
-0.317167 0.158343 0.885134 O
0.182833 0.158343 0.885134 O
-0.067167 0.658343 0.885134 O
-0.192167 0.408343 1.385134 O
0.432833 0.658343 0.885134 O
0.307833 0.408343 1.385134 O
0.057833 0.908343 1.385134 O
0.557833 0.908343 1.385134 O
-0.165227 0.237995 0.885134 O
0.334773 0.237995 0.885134 O
0.084773 0.737995 0.885134 O
-0.040227 0.487995 1.385134 O
0.584773 0.737995 0.885134 O
0.459773 0.487995 1.385134 O
0.209773 0.987995 1.385134 O
0.709773 0.987995 1.385134 O
-0.193542 0.203771 0.614866 O
0.306458 0.203771 0.614866 O
0.056458 0.703771 0.614866 O
-0.068542 0.453771 1.114866 O
0.556458 0.703771 0.614866 O
0.431458 0.453771 1.114866 O
0.181458 0.953771 1.114866 O
0.681458 0.953771 1.114866 O
-0.011629 0.118093 0.332692 O
0.488371 0.118093 0.332692 O
0.238371 0.618093 0.332692 O
0.113371 0.368093 0.832692 O
0.738371 0.618093 0.332692 O
0.613371 0.368093 0.832692 O
0.363371 0.868093 0.832692 O
0.863371 0.868093 0.832692 O
-0.209072 0.154330 1.167308 O
0.290928 0.154330 1.167308 O
0.040928 0.654330 1.167308 O
-0.084072 0.404330 1.667308 O
0.540928 0.654330 1.167308 O
0.415928 0.404330 1.667308 O
0.165928 0.904330 1.667308 O
0.665928 0.904330 1.667308 O
-0.303038 0.297417 1.167308 O
0.196962 0.297417 1.167308 O
-0.053038 0.797417 1.167308 O
-0.178038 0.547417 1.667308 O
0.446962 0.797417 1.167308 O
0.321962 0.547417 1.667308 O
0.071962 1.047417 1.667308 O
0.571962 1.047417 1.667308 O
-0.071962 -0.047417 0.332692 O
0.428038 -0.047417 0.332692 O
0.178038 0.452583 0.332692 O
0.053038 0.202583 0.832692 O
0.678038 0.452583 0.332692 O
0.553038 0.202583 0.832692 O
0.303038 0.702583 0.832692 O
0.803038 0.702583 0.832692 O
-0.165928 0.095670 0.332692 O
0.334072 0.095670 0.332692 O
0.084072 0.595670 0.332692 O
-0.040928 0.345670 0.832692 O
0.584072 0.595670 0.332692 O
0.459072 0.345670 0.832692 O
0.209072 0.845670 0.832692 O
0.709072 0.845670 0.832692 O
-0.363371 0.131907 1.167308 O
0.136629 0.131907 1.167308 O
-0.113371 0.631907 1.167308 O
-0.238371 0.381907 1.667308 O
0.386629 0.631907 1.167308 O
0.261629 0.381907 1.667308 O
0.011629 0.881907 1.667308 O
0.511629 0.881907 1.667308 O
