Mg1 O1                                  
   1.00000000000000     
     2.5511538368188251    0.0000000000000000    1.4729092830561306
     0.8503846122729418    2.4052511513035983    1.4729092830561306
     0.0000000000000000    0.0000000000000000    2.9458185661122611
   O    Mg
     1     1
Direct
  0.5000000000000000  0.5000000000000000  0.5000000000000000
  0.0000000000000000  0.0000000000000000  0.0000000000000000
 
  0.00000000E+00  0.00000000E+00  0.00000000E+00
  0.00000000E+00  0.00000000E+00  0.00000000E+00
