Generated by vise. Mode: primitive_uniform, kpt density: 3.5999999999999996, factor: 1. 
0
Gamma
10 10 10
