Generated by pydefect. Formula: MgSe SG: 186
289
Reciprocal
0.0 0.0 0.08333333333333 2 None
0.08333333333333 -0.0 0.08333333333333 12 None
0.16666666666667 -0.0 0.08333333333333 12 None
0.25 -0.0 0.08333333333333 12 None
0.33333333333333 -0.0 0.08333333333333 12 None
0.41666666666667 -0.0 0.08333333333333 12 None
0.5 -0.0 0.08333333333333 6 None
0.08333333333333 0.08333333333333 0.08333333333333 12 None
0.16666666666667 0.08333333333333 0.08333333333333 24 None
0.25 0.08333333333333 0.08333333333333 24 None
0.33333333333333 0.08333333333333 0.08333333333333 24 None
0.41666666666667 0.08333333333333 0.08333333333333 24 None
0.16666666666667 0.16666666666667 0.08333333333333 12 None
0.25 0.16666666666667 0.08333333333333 24 None
0.33333333333333 0.16666666666667 0.08333333333333 24 None
0.41666666666667 0.16666666666667 0.08333333333333 12 None
0.25 0.25 0.08333333333333 12 None
0.33333333333333 0.25 0.08333333333333 24 None
0.33333333333333 0.33333333333333 0.08333333333333 4 None
0.0 0.0 0.25 2 None
0.08333333333333 -0.0 0.25 12 None
0.16666666666667 -0.0 0.25 12 None
0.25 -0.0 0.25 12 None
0.33333333333333 -0.0 0.25 12 None
0.41666666666667 -0.0 0.25 12 None
0.5 -0.0 0.25 6 None
0.08333333333333 0.08333333333333 0.25 12 None
0.16666666666667 0.08333333333333 0.25 24 None
0.25 0.08333333333333 0.25 24 None
0.33333333333333 0.08333333333333 0.25 24 None
0.41666666666667 0.08333333333333 0.25 24 None
0.16666666666667 0.16666666666667 0.25 12 None
0.25 0.16666666666667 0.25 24 None
0.33333333333333 0.16666666666667 0.25 24 None
0.41666666666667 0.16666666666667 0.25 12 None
0.25 0.25 0.25 12 None
0.33333333333333 0.25 0.25 24 None
0.33333333333333 0.33333333333333 0.25 4 None
0.0 0.0 0.41666666666667 2 None
0.08333333333333 -0.0 0.41666666666667 12 None
0.16666666666667 -0.0 0.41666666666667 12 None
0.25 -0.0 0.41666666666667 12 None
0.33333333333333 -0.0 0.41666666666667 12 None
0.41666666666667 -0.0 0.41666666666667 12 None
0.5 -0.0 0.41666666666667 6 None
0.08333333333333 0.08333333333333 0.41666666666667 12 None
0.16666666666667 0.08333333333333 0.41666666666667 24 None
0.25 0.08333333333333 0.41666666666667 24 None
0.33333333333333 0.08333333333333 0.41666666666667 24 None
0.41666666666667 0.08333333333333 0.41666666666667 24 None
0.16666666666667 0.16666666666667 0.41666666666667 12 None
0.25 0.16666666666667 0.41666666666667 24 None
0.33333333333333 0.16666666666667 0.41666666666667 24 None
0.41666666666667 0.16666666666667 0.41666666666667 12 None
0.25 0.25 0.41666666666667 12 None
0.33333333333333 0.25 0.41666666666667 24 None
0.33333333333333 0.33333333333333 0.41666666666667 4 None
0.0 0.0 0.0 0 GAMMA
0.015151515151515152 0.0 0.0 0 
0.030303030303030304 0.0 0.0 0 
0.045454545454545456 0.0 0.0 0 
0.06060606060606061 0.0 0.0 0 
0.07575757575757576 0.0 0.0 0 
0.09090909090909091 0.0 0.0 0 
0.10606060606060606 0.0 0.0 0 
0.12121212121212122 0.0 0.0 0 
0.13636363636363635 0.0 0.0 0 
0.15151515151515152 0.0 0.0 0 
0.16666666666666666 0.0 0.0 0 
0.18181818181818182 0.0 0.0 0 
0.19696969696969696 0.0 0.0 0 
0.21212121212121213 0.0 0.0 0 
0.22727272727272727 0.0 0.0 0 
0.24242424242424243 0.0 0.0 0 
0.25757575757575757 0.0 0.0 0 
0.2727272727272727 0.0 0.0 0 
0.2878787878787879 0.0 0.0 0 
0.30303030303030304 0.0 0.0 0 
0.3181818181818182 0.0 0.0 0 
0.3333333333333333 0.0 0.0 0 
0.3484848484848485 0.0 0.0 0 
0.36363636363636365 0.0 0.0 0 
0.3787878787878788 0.0 0.0 0 
0.3939393939393939 0.0 0.0 0 
0.4090909090909091 0.0 0.0 0 
0.42424242424242425 0.0 0.0 0 
0.4393939393939394 0.0 0.0 0 
0.45454545454545453 0.0 0.0 0 
0.4696969696969697 0.0 0.0 0 
0.48484848484848486 0.0 0.0 0 
0.5 0.0 0.0 0 M
0.49074074074074076 0.018518518518518517 0.0 0 
0.48148148148148145 0.037037037037037035 0.0 0 
0.4722222222222222 0.05555555555555555 0.0 0 
0.46296296296296297 0.07407407407407407 0.0 0 
0.4537037037037037 0.09259259259259259 0.0 0 
0.4444444444444444 0.1111111111111111 0.0 0 
0.4351851851851852 0.12962962962962962 0.0 0 
0.42592592592592593 0.14814814814814814 0.0 0 
0.41666666666666663 0.16666666666666666 0.0 0 
0.4074074074074074 0.18518518518518517 0.0 0 
0.39814814814814814 0.2037037037037037 0.0 0 
0.3888888888888889 0.2222222222222222 0.0 0 
0.3796296296296296 0.24074074074074073 0.0 0 
0.37037037037037035 0.25925925925925924 0.0 0 
0.36111111111111105 0.2777777777777778 0.0 0 
0.35185185185185186 0.2962962962962963 0.0 0 
0.34259259259259256 0.31481481481481477 0.0 0 
0.3333333333333333 0.3333333333333333 0.0 0 K
0.32456140350877194 0.32456140350877194 0.0 0 
0.3157894736842105 0.3157894736842105 0.0 0 
0.3070175438596491 0.3070175438596491 0.0 0 
0.2982456140350877 0.2982456140350877 0.0 0 
0.2894736842105263 0.2894736842105263 0.0 0 
0.2807017543859649 0.2807017543859649 0.0 0 
0.2719298245614035 0.2719298245614035 0.0 0 
0.2631578947368421 0.2631578947368421 0.0 0 
0.2543859649122807 0.2543859649122807 0.0 0 
0.24561403508771928 0.24561403508771928 0.0 0 
0.23684210526315788 0.23684210526315788 0.0 0 
0.22807017543859648 0.22807017543859648 0.0 0 
0.21929824561403508 0.21929824561403508 0.0 0 
0.21052631578947367 0.21052631578947367 0.0 0 
0.20175438596491227 0.20175438596491227 0.0 0 
0.19298245614035087 0.19298245614035087 0.0 0 
0.18421052631578946 0.18421052631578946 0.0 0 
0.17543859649122806 0.17543859649122806 0.0 0 
0.16666666666666666 0.16666666666666666 0.0 0 
0.15789473684210525 0.15789473684210525 0.0 0 
0.14912280701754385 0.14912280701754385 0.0 0 
0.14035087719298245 0.14035087719298245 0.0 0 
0.13157894736842105 0.13157894736842105 0.0 0 
0.12280701754385964 0.12280701754385964 0.0 0 
0.11403508771929827 0.11403508771929827 0.0 0 
0.10526315789473684 0.10526315789473684 0.0 0 
0.09649122807017543 0.09649122807017543 0.0 0 
0.08771929824561406 0.08771929824561406 0.0 0 
0.07894736842105265 0.07894736842105265 0.0 0 
0.07017543859649122 0.07017543859649122 0.0 0 
0.06140350877192985 0.06140350877192985 0.0 0 
0.05263157894736842 0.05263157894736842 0.0 0 
0.04385964912280699 0.04385964912280699 0.0 0 
0.03508771929824561 0.03508771929824561 0.0 0 
0.02631578947368418 0.02631578947368418 0.0 0 
0.017543859649122806 0.017543859649122806 0.0 0 
0.00877192982456143 0.00877192982456143 0.0 0 
0.0 0.0 0.0 0 GAMMA
0.0 0.0 0.029411764705882353 0 
0.0 0.0 0.058823529411764705 0 
0.0 0.0 0.08823529411764706 0 
0.0 0.0 0.11764705882352941 0 
0.0 0.0 0.14705882352941177 0 
0.0 0.0 0.17647058823529413 0 
0.0 0.0 0.20588235294117646 0 
0.0 0.0 0.23529411764705882 0 
0.0 0.0 0.2647058823529412 0 
0.0 0.0 0.29411764705882354 0 
0.0 0.0 0.3235294117647059 0 
0.0 0.0 0.35294117647058826 0 
0.0 0.0 0.38235294117647056 0 
0.0 0.0 0.4117647058823529 0 
0.0 0.0 0.4411764705882353 0 
0.0 0.0 0.47058823529411764 0 
0.0 0.0 0.5 0 A
0.015151515151515152 0.0 0.5 0 
0.030303030303030304 0.0 0.5 0 
0.045454545454545456 0.0 0.5 0 
0.06060606060606061 0.0 0.5 0 
0.07575757575757576 0.0 0.5 0 
0.09090909090909091 0.0 0.5 0 
0.10606060606060606 0.0 0.5 0 
0.12121212121212122 0.0 0.5 0 
0.13636363636363635 0.0 0.5 0 
0.15151515151515152 0.0 0.5 0 
0.16666666666666666 0.0 0.5 0 
0.18181818181818182 0.0 0.5 0 
0.19696969696969696 0.0 0.5 0 
0.21212121212121213 0.0 0.5 0 
0.22727272727272727 0.0 0.5 0 
0.24242424242424243 0.0 0.5 0 
0.25757575757575757 0.0 0.5 0 
0.2727272727272727 0.0 0.5 0 
0.2878787878787879 0.0 0.5 0 
0.30303030303030304 0.0 0.5 0 
0.3181818181818182 0.0 0.5 0 
0.3333333333333333 0.0 0.5 0 
0.3484848484848485 0.0 0.5 0 
0.36363636363636365 0.0 0.5 0 
0.3787878787878788 0.0 0.5 0 
0.3939393939393939 0.0 0.5 0 
0.4090909090909091 0.0 0.5 0 
0.42424242424242425 0.0 0.5 0 
0.4393939393939394 0.0 0.5 0 
0.45454545454545453 0.0 0.5 0 
0.4696969696969697 0.0 0.5 0 
0.48484848484848486 0.0 0.5 0 
0.5 0.0 0.5 0 L
0.49074074074074076 0.018518518518518517 0.5 0 
0.48148148148148145 0.037037037037037035 0.5 0 
0.4722222222222222 0.05555555555555555 0.5 0 
0.46296296296296297 0.07407407407407407 0.5 0 
0.4537037037037037 0.09259259259259259 0.5 0 
0.4444444444444444 0.1111111111111111 0.5 0 
0.4351851851851852 0.12962962962962962 0.5 0 
0.42592592592592593 0.14814814814814814 0.5 0 
0.41666666666666663 0.16666666666666666 0.5 0 
0.4074074074074074 0.18518518518518517 0.5 0 
0.39814814814814814 0.2037037037037037 0.5 0 
0.3888888888888889 0.2222222222222222 0.5 0 
0.3796296296296296 0.24074074074074073 0.5 0 
0.37037037037037035 0.25925925925925924 0.5 0 
0.36111111111111105 0.2777777777777778 0.5 0 
0.35185185185185186 0.2962962962962963 0.5 0 
0.34259259259259256 0.31481481481481477 0.5 0 
0.3333333333333333 0.3333333333333333 0.5 0 H
0.32456140350877194 0.32456140350877194 0.5 0 
0.3157894736842105 0.3157894736842105 0.5 0 
0.3070175438596491 0.3070175438596491 0.5 0 
0.2982456140350877 0.2982456140350877 0.5 0 
0.2894736842105263 0.2894736842105263 0.5 0 
0.2807017543859649 0.2807017543859649 0.5 0 
0.2719298245614035 0.2719298245614035 0.5 0 
0.2631578947368421 0.2631578947368421 0.5 0 
0.2543859649122807 0.2543859649122807 0.5 0 
0.24561403508771928 0.24561403508771928 0.5 0 
0.23684210526315788 0.23684210526315788 0.5 0 
0.22807017543859648 0.22807017543859648 0.5 0 
0.21929824561403508 0.21929824561403508 0.5 0 
0.21052631578947367 0.21052631578947367 0.5 0 
0.20175438596491227 0.20175438596491227 0.5 0 
0.19298245614035087 0.19298245614035087 0.5 0 
0.18421052631578946 0.18421052631578946 0.5 0 
0.17543859649122806 0.17543859649122806 0.5 0 
0.16666666666666666 0.16666666666666666 0.5 0 
0.15789473684210525 0.15789473684210525 0.5 0 
0.14912280701754385 0.14912280701754385 0.5 0 
0.14035087719298245 0.14035087719298245 0.5 0 
0.13157894736842105 0.13157894736842105 0.5 0 
0.12280701754385964 0.12280701754385964 0.5 0 
0.11403508771929827 0.11403508771929827 0.5 0 
0.10526315789473684 0.10526315789473684 0.5 0 
0.09649122807017543 0.09649122807017543 0.5 0 
0.08771929824561406 0.08771929824561406 0.5 0 
0.07894736842105265 0.07894736842105265 0.5 0 
0.07017543859649122 0.07017543859649122 0.5 0 
0.06140350877192985 0.06140350877192985 0.5 0 
0.05263157894736842 0.05263157894736842 0.5 0 
0.04385964912280699 0.04385964912280699 0.5 0 
0.03508771929824561 0.03508771929824561 0.5 0 
0.02631578947368418 0.02631578947368418 0.5 0 
0.017543859649122806 0.017543859649122806 0.5 0 
0.00877192982456143 0.00877192982456143 0.5 0 
0.0 0.0 0.5 0 A
0.5 0.0 0.5 0 L
0.5 0.0 0.47058823529411764 0 
0.5 0.0 0.4411764705882353 0 
0.5 0.0 0.4117647058823529 0 
0.5 0.0 0.38235294117647056 0 
0.5 0.0 0.3529411764705882 0 
0.5 0.0 0.32352941176470584 0 
0.5 0.0 0.29411764705882354 0 
0.5 0.0 0.2647058823529412 0 
0.5 0.0 0.23529411764705882 0 
0.5 0.0 0.20588235294117646 0 
0.5 0.0 0.1764705882352941 0 
0.5 0.0 0.14705882352941174 0 
0.5 0.0 0.11764705882352944 0 
0.5 0.0 0.08823529411764708 0 
0.5 0.0 0.05882352941176472 0 
0.5 0.0 0.02941176470588236 0 
0.5 0.0 0.0 0 M
0.3333333333333333 0.3333333333333333 0.5 0 H
0.3333333333333333 0.3333333333333333 0.47058823529411764 0 
0.3333333333333333 0.3333333333333333 0.4411764705882353 0 
0.3333333333333333 0.3333333333333333 0.4117647058823529 0 
0.3333333333333333 0.3333333333333333 0.38235294117647056 0 
0.3333333333333333 0.3333333333333333 0.3529411764705882 0 
0.3333333333333333 0.3333333333333333 0.32352941176470584 0 
0.3333333333333333 0.3333333333333333 0.29411764705882354 0 
0.3333333333333333 0.3333333333333333 0.2647058823529412 0 
0.3333333333333333 0.3333333333333333 0.23529411764705882 0 
0.3333333333333333 0.3333333333333333 0.20588235294117646 0 
0.3333333333333333 0.3333333333333333 0.1764705882352941 0 
0.3333333333333333 0.3333333333333333 0.14705882352941174 0 
0.3333333333333333 0.3333333333333333 0.11764705882352944 0 
0.3333333333333333 0.3333333333333333 0.08823529411764708 0 
0.3333333333333333 0.3333333333333333 0.05882352941176472 0 
0.3333333333333333 0.3333333333333333 0.02941176470588236 0 
0.3333333333333333 0.3333333333333333 0.0 0 K
Tetrahedron
738 0.000193
8 2 2 8 21
8 1 2 2 21
4 1 2 20 21
4 2 8 21 27
8 2 21 21 27
8 2 20 21 21
8 3 8 9 27
8 2 3 8 27
4 2 3 21 27
4 3 9 27 28
8 3 22 27 28
8 3 21 22 27
8 4 9 10 28
8 3 4 9 28
4 3 4 22 28
4 4 10 28 29
8 4 23 28 29
8 4 22 23 28
8 5 10 11 29
8 4 5 10 29
4 4 5 23 29
4 5 11 29 30
8 5 24 29 30
8 5 23 24 29
8 6 11 12 30
8 5 6 11 30
4 5 6 24 30
4 6 12 30 31
8 6 25 30 31
8 6 24 25 30
8 7 12 12 31
8 6 7 12 31
4 6 7 25 31
4 7 12 31 31
4 7 26 31 31
8 7 25 26 31
8 6 11 12 31
4 6 7 26 31
4 6 11 30 31
8 6 25 26 31
8 5 10 11 30
4 5 6 25 30
4 5 10 29 30
8 5 24 25 30
8 4 9 10 29
4 4 5 24 29
4 4 9 28 29
8 4 23 24 29
8 3 8 9 28
4 3 4 23 28
4 3 8 27 28
8 3 22 23 28
4 2 2 8 27
4 2 3 22 27
4 2 2 21 27
8 2 21 22 27
4 1 2 21 21
4 1 20 21 21
8 3 8 9 22
8 2 3 8 22
4 2 8 21 22
4 8 9 22 28
8 8 22 27 28
8 8 21 22 27
8 9 9 13 28
8 8 9 9 28
4 8 9 27 28
4 9 13 28 32
8 9 28 28 32
8 9 27 28 28
8 10 13 14 32
8 9 10 13 32
4 9 10 28 32
4 10 14 32 33
8 10 29 32 33
8 10 28 29 32
8 11 14 15 33
8 10 11 14 33
4 10 11 29 33
4 11 15 33 34
8 11 30 33 34
8 11 29 30 33
8 12 15 16 34
8 11 12 15 34
4 11 12 30 34
4 12 16 34 35
8 12 31 34 35
8 12 30 31 34
8 12 15 16 35
4 12 12 16 35
4 12 12 31 35
4 12 15 34 35
8 12 31 31 35
8 11 14 15 34
4 11 12 31 34
4 11 14 33 34
8 11 30 31 34
8 10 13 14 33
4 10 11 30 33
4 10 13 32 33
8 10 29 30 33
4 9 9 13 32
4 9 10 29 32
4 9 9 28 32
8 9 28 29 32
4 8 9 28 28
4 3 8 22 28
4 8 27 28 28
4 2 8 22 27
8 4 9 10 23
8 3 4 9 23
4 3 9 22 23
4 9 10 23 29
8 9 23 28 29
8 9 22 23 28
8 10 13 14 29
8 9 10 13 29
4 9 13 28 29
4 13 14 29 33
8 13 29 32 33
8 13 28 29 32
8 14 14 17 33
8 13 14 14 33
4 13 14 32 33
4 14 17 33 36
8 14 33 33 36
8 14 32 33 33
8 15 17 18 36
8 14 15 17 36
4 14 15 33 36
4 15 18 36 37
8 15 34 36 37
8 15 33 34 36
8 16 18 18 37
8 15 16 18 37
4 15 16 34 37
4 16 18 37 37
4 16 35 37 37
8 16 34 35 37
8 15 17 18 37
4 15 16 35 37
4 15 17 36 37
8 15 34 35 37
4 14 14 17 36
4 14 15 34 36
4 14 14 33 36
8 14 33 34 36
4 13 14 33 33
4 10 13 29 33
4 13 32 33 33
4 9 13 29 32
4 4 9 23 29
4 3 9 23 28
8 5 10 11 24
8 4 5 10 24
4 4 10 23 24
4 10 11 24 30
8 10 24 29 30
8 10 23 24 29
8 11 14 15 30
8 10 11 14 30
4 10 14 29 30
4 14 15 30 34
8 14 30 33 34
8 14 29 30 33
8 15 17 18 34
8 14 15 17 34
4 14 17 33 34
4 17 18 34 37
8 17 34 36 37
8 17 33 34 36
16 18 18 19 37
8 17 18 18 37
4 17 18 36 37
8 18 19 37 38
16 18 37 37 38
8 18 36 37 37
8 18 18 19 38
8 18 18 37 38
4 17 18 37 37
4 15 17 34 37
4 17 36 37 37
4 14 17 34 36
4 11 14 30 34
4 10 14 30 33
4 5 10 24 30
4 4 10 24 29
8 6 11 12 25
8 5 6 11 25
4 5 11 24 25
4 11 12 25 31
8 11 25 30 31
8 11 24 25 30
8 12 15 16 31
8 11 12 15 31
4 11 15 30 31
4 15 16 31 35
8 15 31 34 35
8 15 30 31 34
4 16 18 18 35
8 15 16 18 35
4 15 18 34 35
4 18 18 35 37
8 18 35 37 37
8 18 34 35 37
8 18 19 37 37
8 19 37 37 38
4 16 18 35 37
4 15 18 35 37
4 12 15 31 35
4 11 15 31 34
4 6 11 25 31
4 5 11 25 30
4 7 12 12 26
8 6 7 12 26
4 6 12 25 26
4 12 12 26 31
8 12 26 31 31
8 12 25 26 31
8 12 12 16 31
4 12 16 31 31
4 15 16 31 34
8 16 31 34 35
4 16 31 31 35
8 15 16 18 34
4 16 18 34 35
4 17 18 34 36
8 18 34 36 37
4 17 18 18 36
4 18 18 36 37
4 15 18 34 36
4 16 18 34 37
4 12 16 31 34
4 12 16 31 35
4 7 12 26 31
4 6 12 26 31
8 6 7 12 25
4 7 12 25 26
4 11 12 25 30
8 12 25 30 31
8 11 12 15 30
4 12 15 30 31
4 14 15 30 33
8 15 30 33 34
8 14 15 17 33
4 15 17 33 34
4 14 17 33 33
4 17 33 33 36
4 15 17 33 36
4 11 15 30 33
4 12 15 30 34
4 6 12 25 30
4 7 12 25 31
8 5 6 11 24
4 6 11 24 25
4 10 11 24 29
8 11 24 29 30
8 10 11 14 29
4 11 14 29 30
4 13 14 29 32
8 14 29 32 33
4 13 14 14 32
4 14 14 32 33
4 10 14 29 32
4 11 14 29 33
4 5 11 24 29
4 6 11 24 30
8 4 5 10 23
4 5 10 23 24
4 9 10 23 28
8 10 23 28 29
8 9 10 13 28
4 10 13 28 29
4 9 13 28 28
4 13 28 28 32
4 10 13 28 32
4 4 10 23 28
4 5 10 23 29
8 3 4 9 22
4 4 9 22 23
4 8 9 22 27
8 9 22 27 28
4 8 9 9 27
4 9 9 27 28
4 3 9 22 27
4 4 9 22 28
8 2 3 8 21
4 3 8 21 22
4 2 8 21 21
4 8 21 21 27
4 3 8 21 27
4 1 2 2 20
4 2 2 20 21
8 21 21 27 40
8 20 21 21 40
4 20 21 39 40
4 21 27 40 46
8 21 40 40 46
8 21 39 40 40
8 22 27 28 46
8 21 22 27 46
4 21 22 40 46
4 22 28 46 47
8 22 41 46 47
8 22 40 41 46
8 23 28 29 47
8 22 23 28 47
4 22 23 41 47
4 23 29 47 48
8 23 42 47 48
8 23 41 42 47
8 24 29 30 48
8 23 24 29 48
4 23 24 42 48
4 24 30 48 49
8 24 43 48 49
8 24 42 43 48
8 25 30 31 49
8 24 25 30 49
4 24 25 43 49
4 25 31 49 50
8 25 44 49 50
8 25 43 44 49
8 26 31 31 50
8 25 26 31 50
4 25 26 44 50
4 26 31 50 50
4 26 45 50 50
8 26 44 45 50
8 25 30 31 50
4 25 26 45 50
4 25 30 49 50
8 25 44 45 50
8 24 29 30 49
4 24 25 44 49
4 24 29 48 49
8 24 43 44 49
8 23 28 29 48
4 23 24 43 48
4 23 28 47 48
8 23 42 43 48
8 22 27 28 47
4 22 23 42 47
4 22 27 46 47
8 22 41 42 47
4 21 21 27 46
4 21 22 41 46
4 21 21 40 46
8 21 40 41 46
4 20 21 40 40
4 20 39 40 40
8 22 27 28 41
8 21 22 27 41
4 21 27 40 41
4 27 28 41 47
8 27 41 46 47
8 27 40 41 46
8 28 28 32 47
8 27 28 28 47
4 27 28 46 47
4 28 32 47 51
8 28 47 47 51
8 28 46 47 47
8 29 32 33 51
8 28 29 32 51
4 28 29 47 51
4 29 33 51 52
8 29 48 51 52
8 29 47 48 51
8 30 33 34 52
8 29 30 33 52
4 29 30 48 52
4 30 34 52 53
8 30 49 52 53
8 30 48 49 52
8 31 34 35 53
8 30 31 34 53
4 30 31 49 53
4 31 35 53 54
8 31 50 53 54
8 31 49 50 53
8 31 34 35 54
4 31 31 35 54
4 31 31 50 54
4 31 34 53 54
8 31 50 50 54
8 30 33 34 53
4 30 31 50 53
4 30 33 52 53
8 30 49 50 53
8 29 32 33 52
4 29 30 49 52
4 29 32 51 52
8 29 48 49 52
4 28 28 32 51
4 28 29 48 51
4 28 28 47 51
8 28 47 48 51
4 27 28 47 47
4 22 27 41 47
4 27 46 47 47
4 21 27 41 46
8 23 28 29 42
8 22 23 28 42
4 22 28 41 42
4 28 29 42 48
8 28 42 47 48
8 28 41 42 47
8 29 32 33 48
8 28 29 32 48
4 28 32 47 48
4 32 33 48 52
8 32 48 51 52
8 32 47 48 51
8 33 33 36 52
8 32 33 33 52
4 32 33 51 52
4 33 36 52 55
8 33 52 52 55
8 33 51 52 52
8 34 36 37 55
8 33 34 36 55
4 33 34 52 55
4 34 37 55 56
8 34 53 55 56
8 34 52 53 55
8 35 37 37 56
8 34 35 37 56
4 34 35 53 56
4 35 37 56 56
4 35 54 56 56
8 35 53 54 56
8 34 36 37 56
4 34 35 54 56
4 34 36 55 56
8 34 53 54 56
4 33 33 36 55
4 33 34 53 55
4 33 33 52 55
8 33 52 53 55
4 32 33 52 52
4 29 32 48 52
4 32 51 52 52
4 28 32 48 51
4 23 28 42 48
4 22 28 42 47
8 24 29 30 43
8 23 24 29 43
4 23 29 42 43
4 29 30 43 49
8 29 43 48 49
8 29 42 43 48
8 30 33 34 49
8 29 30 33 49
4 29 33 48 49
4 33 34 49 53
8 33 49 52 53
8 33 48 49 52
8 34 36 37 53
8 33 34 36 53
4 33 36 52 53
4 36 37 53 56
8 36 53 55 56
8 36 52 53 55
16 37 37 38 56
8 36 37 37 56
4 36 37 55 56
8 37 38 56 57
16 37 56 56 57
8 37 55 56 56
8 37 37 38 57
8 37 37 56 57
4 36 37 56 56
4 34 36 53 56
4 36 55 56 56
4 33 36 53 55
4 30 33 49 53
4 29 33 49 52
4 24 29 43 49
4 23 29 43 48
8 25 30 31 44
8 24 25 30 44
4 24 30 43 44
4 30 31 44 50
8 30 44 49 50
8 30 43 44 49
8 31 34 35 50
8 30 31 34 50
4 30 34 49 50
4 34 35 50 54
8 34 50 53 54
8 34 49 50 53
4 35 37 37 54
8 34 35 37 54
4 34 37 53 54
4 37 37 54 56
8 37 54 56 56
8 37 53 54 56
8 37 38 56 56
8 38 56 56 57
4 35 37 54 56
4 34 37 54 56
4 31 34 50 54
4 30 34 50 53
4 25 30 44 50
4 24 30 44 49
4 26 31 31 45
8 25 26 31 45
4 25 31 44 45
4 31 31 45 50
8 31 45 50 50
8 31 44 45 50
8 31 31 35 50
4 31 35 50 50
4 34 35 50 53
8 35 50 53 54
4 35 50 50 54
8 34 35 37 53
4 35 37 53 54
4 36 37 53 55
8 37 53 55 56
4 36 37 37 55
4 37 37 55 56
4 34 37 53 55
4 35 37 53 56
4 31 35 50 53
4 31 35 50 54
4 26 31 45 50
4 25 31 45 50
8 25 26 31 44
4 26 31 44 45
4 30 31 44 49
8 31 44 49 50
8 30 31 34 49
4 31 34 49 50
4 33 34 49 52
8 34 49 52 53
8 33 34 36 52
4 34 36 52 53
4 33 36 52 52
4 36 52 52 55
4 34 36 52 55
4 30 34 49 52
4 31 34 49 53
4 25 31 44 49
4 26 31 44 50
8 24 25 30 43
4 25 30 43 44
4 29 30 43 48
8 30 43 48 49
8 29 30 33 48
4 30 33 48 49
4 32 33 48 51
8 33 48 51 52
4 32 33 33 51
4 33 33 51 52
4 29 33 48 51
4 30 33 48 52
4 24 30 43 48
4 25 30 43 49
8 23 24 29 42
4 24 29 42 43
4 28 29 42 47
8 29 42 47 48
8 28 29 32 47
4 29 32 47 48
4 28 32 47 47
4 32 47 47 51
4 29 32 47 51
4 23 29 42 47
4 24 29 42 48
8 22 23 28 41
4 23 28 41 42
4 27 28 41 46
8 28 41 46 47
4 27 28 28 46
4 28 28 46 47
4 22 28 41 46
4 23 28 41 47
8 21 22 27 40
4 22 27 40 41
4 21 27 40 40
4 27 40 40 46
4 22 27 40 46
4 20 21 21 39
4 21 21 39 40
12 40 40 40 46
12 39 40 40 40
6 39 39 40 40
6 40 40 46 46
12 41 46 46 47
12 40 41 46 46
12 40 40 41 46
12 41 46 47 47
12 41 41 46 47
12 40 41 41 46
12 42 47 47 48
12 41 42 47 47
12 41 41 42 47
12 42 47 48 48
12 42 42 47 48
12 41 42 42 47
12 43 48 48 49
12 42 43 48 48
12 42 42 43 48
12 43 48 49 49
12 43 43 48 49
12 42 43 43 48
12 44 49 49 50
12 43 44 49 49
12 43 43 44 49
12 44 49 50 50
12 44 44 49 50
12 43 44 44 49
12 45 50 50 50
12 44 45 50 50
12 44 44 45 50
6 45 45 50 50
12 44 45 45 50
12 47 47 47 51
12 46 47 47 47
6 46 46 47 47
6 47 47 51 51
12 48 51 51 52
12 47 48 51 51
12 47 47 48 51
12 48 51 52 52
12 48 48 51 52
12 47 48 48 51
12 49 52 52 53
12 48 49 52 52
12 48 48 49 52
12 49 52 53 53
12 49 49 52 53
12 48 49 49 52
12 50 53 53 54
12 49 50 53 53
12 49 49 50 53
12 50 53 54 54
12 50 50 53 54
12 49 50 50 53
6 50 50 54 54
12 50 50 50 54
12 52 52 52 55
12 51 52 52 52
6 51 51 52 52
6 52 52 55 55
12 53 55 55 56
12 52 53 55 55
12 52 52 53 55
12 53 55 56 56
12 53 53 55 56
12 52 53 53 55
12 54 56 56 56
12 53 54 56 56
12 53 53 54 56
6 54 54 56 56
12 53 54 54 56
24 56 56 56 57
12 55 56 56 56
6 55 55 56 56
12 56 56 57 57
12 2 2 2 8
12 1 2 2 2
6 1 1 2 2
6 2 2 8 8
12 3 8 8 9
12 2 3 8 8
12 2 2 3 8
12 3 8 9 9
12 3 3 8 9
12 2 3 3 8
12 4 9 9 10
12 3 4 9 9
12 3 3 4 9
12 4 9 10 10
12 4 4 9 10
12 3 4 4 9
12 5 10 10 11
12 4 5 10 10
12 4 4 5 10
12 5 10 11 11
12 5 5 10 11
12 4 5 5 10
12 6 11 11 12
12 5 6 11 11
12 5 5 6 11
12 6 11 12 12
12 6 6 11 12
12 5 6 6 11
12 7 12 12 12
12 6 7 12 12
12 6 6 7 12
6 7 7 12 12
12 6 7 7 12
12 9 9 9 13
12 8 9 9 9
6 8 8 9 9
6 9 9 13 13
12 10 13 13 14
12 9 10 13 13
12 9 9 10 13
12 10 13 14 14
12 10 10 13 14
12 9 10 10 13
12 11 14 14 15
12 10 11 14 14
12 10 10 11 14
12 11 14 15 15
12 11 11 14 15
12 10 11 11 14
12 12 15 15 16
12 11 12 15 15
12 11 11 12 15
12 12 15 16 16
12 12 12 15 16
12 11 12 12 15
6 12 12 16 16
12 12 12 12 16
12 14 14 14 17
12 13 14 14 14
6 13 13 14 14
6 14 14 17 17
12 15 17 17 18
12 14 15 17 17
12 14 14 15 17
12 15 17 18 18
12 15 15 17 18
12 14 15 15 17
12 16 18 18 18
12 15 16 18 18
12 15 15 16 18
6 16 16 18 18
12 15 16 16 18
24 18 18 18 19
12 17 18 18 18
6 17 17 18 18
12 18 18 19 19
