Mg2                                     
   1.00000000000000     
     3.1628994965549779   -0.0000000037852326    0.0000000000000000
    -1.5814492548337040    2.7391510235022003    0.0000000000000000
     0.0000000000000000    0.0000000000000000    5.2001193332557500
   Mg
     2
Direct
  0.3333330000000032  0.6666669999999968  0.2500000000000000
  0.6666669999999968  0.3333330000000032  0.7500000000000000
 
  0.00000000E+00  0.00000000E+00  0.00000000E+00
  0.00000000E+00  0.00000000E+00  0.00000000E+00
